ALGO = Fast
EDIFF = 0.0018000000000000002
ENCUT = 520
IBRION = 2
ISIF = 3
ISMEAR = -5
ISPIN = 2
LASPH = True
LMAXMIX = 4
LORBIT = 11
LREAL = Auto
LWAVE = False
MAGMOM = 2*0.0 2*0.423 1*0.009 1*0.013 4*0.007 1*0.013 1*0.009 1*0.008 2*-0.0 1*0.012 1*0.017 1*0.053 1*0.067 1*0.08 1*0.067 1*0.065 1*0.066 2*0.004 1*0.066 1*0.065 1*0.067 1*0.08 1*0.067 1*0.053 1*0.017 1*0.012 2*-0.0 1*0.008
NELM = 100
NSW = 99
PREC = Accurate
SIGMA = 0.05
