Li2 Sn2 P8 O24
1.0
  14.2106239999999993    0.0000000000000000    0.0000000000000000
   0.0000000000000000    5.4098020000000000    0.0000000000000000
   0.0000000000000000    0.6745040000000000    7.3684760000000002
Li Sn P O
2 2 8 24
direct
   0.0069230000000000    0.3559380000000000    0.0988510000000000 Li
   0.5069230000000000    0.6440620000000000    0.9011490000000000 Li
   0.2371670000000000    0.4832510000000000    0.5080760000000000 Sn
   0.7371670000000000    0.5167490000000000    0.4919240000000000 Sn
   0.0962590000000000    0.9627750000000000    0.5559940000000000 P
   0.3826100000000000    0.9991280000000000    0.4490430000000000 P
   0.6716630000000000    0.8732990000000000    0.0953620000000000 P
   0.3164990000000000    0.7817170000000000    0.1089640000000000 P
   0.8164990000000000    0.2182830000000000    0.8910360000000001 P
   0.1716630000000000    0.1267010000000000    0.9046380000000001 P
   0.8826100000000000    0.0008720000000000    0.5509570000000000 P
   0.5962590000000000    0.0372250000000000    0.4440060000000000 P
   0.2631930000000000    0.9631990000000000    0.9593900000000000 O
   0.1196990000000000    0.9474520000000000    0.7686650000000000 O
   0.8561700000000000    0.0133870000000000    0.7600310000000000 O
   0.6071060000000000    0.8467930000000000    0.9402779999999999 O
   0.4921780000000000    0.9224460000000000    0.4584500000000000 O
   0.6581900000000001    0.8504040000000000    0.5514310000000000 O
   0.3332690000000000    0.8021910000000000    0.5721200000000000 O
   0.0966330000000000    0.7013230000000000    0.5002330000000000 O
   0.8726790000000000    0.7342959999999999    0.5081390000000000 O
   0.2462550000000000    0.6134790000000000    0.2132510000000000 O
   0.7057710000000000    0.6382930000000000    0.2017640000000000 O
   0.3968860000000000    0.6662470000000000    0.0203250000000000 O
   0.8968860000000000    0.3337530000000000    0.9796750000000000 O
   0.2057710000000000    0.3617070000000000    0.7982359999999999 O
   0.7462550000000000    0.3865210000000000    0.7867490000000000 O
   0.3726790000000000    0.2657040000000000    0.4918610000000000 O
   0.5966330000000000    0.2986770000000000    0.4997670000000000 O
   0.8332690000000000    0.1978090000000000    0.4278800000000000 O
   0.1581900000000000    0.1495960000000000    0.4485690000000000 O
   0.9921780000000000    0.0775540000000000    0.5415500000000000 O
   0.1071060000000000    0.1532070000000000    0.0597220000000000 O
   0.3561700000000000    0.9866130000000000    0.2399690000000000 O
   0.6196990000000000    0.0525480000000000    0.2313350000000000 O
   0.7631930000000000    0.0368010000000000    0.0406100000000000 O
