Li8 B4 Sb4 O16
1.0
   4.9381750000000002    0.0000000000000000    0.0000000000000000
   0.0000000000000000    7.5437799999999999    0.0000000000000000
   0.0000000000000000    1.3705250000000000   10.2539730000000002
Li B Sb O
8 4 4 16
direct
   0.6905310000000000    0.9965430000000000    0.8277720000000000 Li
   0.8094690000000000    0.9965430000000000    0.3277720000000000 Li
   0.7927110000000001    0.7997190000000000    0.5839340000000000 Li
   0.7072889999999999    0.7997190000000000    0.0839340000000000 Li
   0.2927110000000000    0.2002810000000000    0.9160660000000000 Li
   0.2072890000000000    0.2002810000000000    0.4160660000000000 Li
   0.1905310000000000    0.0034570000000000    0.6722280000000000 Li
   0.3094690000000000    0.0034570000000000    0.1722280000000000 Li
   0.1735950000000000    0.8465350000000000    0.9405990000000000 B
   0.3264050000000000    0.8465350000000000    0.4405990000000000 B
   0.6735950000000001    0.1534650000000000    0.5594010000000000 B
   0.8264049999999999    0.1534650000000000    0.0594010000000000 B
   0.7637520000000000    0.5033550000000000    0.8760000000000000 Sb
   0.2637520000000000    0.4966450000000000    0.6240000000000000 Sb
   0.7362480000000000    0.5033550000000000    0.3760000000000000 Sb
   0.2362480000000000    0.4966450000000000    0.1240000000000000 Sb
   0.3014600000000000    0.9683650000000000    0.8533849999999999 O
   0.1985400000000000    0.9683650000000000    0.3533850000000000 O
   0.9104719999999999    0.7889690000000000    0.9196950000000000 O
   0.5895280000000001    0.7889690000000000    0.4196950000000000 O
   0.1987490000000000    0.7806360000000000    0.5622220000000000 O
   0.6452970000000000    0.5474760000000000    0.6840150000000000 O
   0.3012510000000000    0.7806360000000000    0.0622220000000000 O
   0.8547030000000000    0.5474760000000000    0.1840150000000000 O
   0.1452970000000000    0.4525240000000000    0.8159850000000000 O
   0.6987490000000000    0.2193640000000000    0.9377780000000000 O
   0.3547030000000000    0.4525240000000000    0.3159850000000000 O
   0.8012510000000000    0.2193640000000000    0.4377780000000000 O
   0.4104720000000000    0.2110310000000000    0.5803050000000000 O
   0.0895280000000000    0.2110310000000000    0.0803050000000000 O
   0.8014600000000000    0.0316350000000000    0.6466150000000001 O
   0.6985400000000000    0.0316350000000000    0.1466150000000000 O
