pymatgen with grid density = 1279 / number of atoms
0
Gamma
1 1 1
