Li12 La8 H24 N36 O120
1.0
  13.5413340000000009    0.0000000000000000    0.0000000000000000
   0.0000000000000000   13.5413340000000009    0.0000000000000000
   0.0000000000000000    0.0000000000000000   13.5413340000000009
Li La H N O
12 8 24 36 120
direct
   0.2016950000000000    0.9539110000000000    0.7788200000000000 Li
   0.2211800000000000    0.7016950000000000    0.5460890000000000 Li
   0.4539110000000000    0.7211800000000000    0.7983050000000000 Li
   0.7016950000000000    0.5460890000000000    0.2211800000000000 Li
   0.7211800000000000    0.7983050000000000    0.4539110000000000 Li
   0.9539110000000000    0.7788200000000000    0.2016950000000000 Li
   0.7983050000000000    0.4539110000000000    0.7211800000000000 Li
   0.7788200000000000    0.2016950000000000    0.9539110000000000 Li
   0.5460890000000000    0.2211800000000000    0.7016950000000000 Li
   0.2983050000000000    0.0460890000000000    0.2788200000000000 Li
   0.2788200000000000    0.2983050000000000    0.0460890000000000 Li
   0.0460890000000000    0.2788200000000000    0.2983050000000000 Li
   0.0317420000000000    0.5317420000000000    0.9682580000000000 La
   0.5317420000000000    0.9682580000000000    0.0317420000000000 La
   0.9682580000000000    0.0317420000000000    0.5317420000000000 La
   0.4682580000000000    0.4682580000000000    0.4682580000000000 La
   0.7778000000000000    0.7778000000000000    0.7778000000000000 La
   0.2222000000000000    0.2778000000000000    0.7222000000000000 La
   0.2778000000000000    0.7222000000000000    0.2222000000000000 La
   0.7222000000000000    0.2222000000000000    0.2778000000000000 La
   0.0387800000000000    0.6484420000000000    0.5260660000000000 H
   0.4739340000000000    0.5387800000000000    0.8515580000000000 H
   0.1484420000000000    0.9739340000000000    0.9612200000000000 H
   0.5387800000000000    0.8515580000000000    0.4739340000000000 H
   0.9739340000000000    0.9612200000000000    0.1484420000000000 H
   0.6484420000000000    0.5260660000000000    0.0387800000000000 H
   0.9612200000000000    0.1484420000000000    0.9739340000000000 H
   0.5260660000000000    0.0387800000000000    0.6484420000000000 H
   0.8515580000000000    0.4739340000000000    0.5387800000000000 H
   0.4612200000000000    0.3515580000000000    0.0260660000000000 H
   0.0260660000000000    0.4612200000000000    0.3515580000000000 H
   0.3515580000000000    0.0260660000000000    0.4612200000000000 H
   0.0985640000000000    0.5691910000000000    0.5827490000000000 H
   0.4172510000000000    0.5985640000000000    0.9308090000000000 H
   0.0691910000000000    0.9172510000000000    0.9014360000000000 H
   0.5985640000000000    0.9308090000000000    0.4172510000000000 H
   0.9172510000000000    0.9014360000000000    0.0691910000000000 H
   0.5691910000000000    0.5827490000000000    0.0985640000000000 H
   0.9014360000000000    0.0691910000000000    0.9172510000000000 H
   0.5827490000000000    0.0985640000000000    0.5691910000000000 H
   0.9308090000000000    0.4172510000000000    0.5985640000000000 H
   0.4014360000000000    0.4308090000000000    0.0827490000000000 H
   0.0827490000000000    0.4014360000000000    0.4308090000000000 H
   0.4308090000000000    0.0827490000000000    0.4014360000000000 H
   0.2378450000000000    0.6267180000000000    0.0112080000000000 N
   0.9887920000000000    0.7378450000000000    0.8732820000000000 N
   0.1267180000000000    0.4887920000000000    0.7621550000000000 N
   0.7378450000000000    0.8732820000000000    0.9887920000000000 N
   0.4887920000000000    0.7621550000000000    0.1267180000000000 N
   0.6267180000000000    0.0112080000000000    0.2378450000000000 N
   0.7621550000000000    0.1267180000000000    0.4887920000000000 N
   0.0112080000000000    0.2378450000000000    0.6267180000000000 N
   0.8732820000000000    0.9887920000000000    0.7378450000000000 N
   0.2621550000000000    0.3732820000000000    0.5112080000000000 N
   0.5112080000000000    0.2621550000000000    0.3732820000000000 N
   0.3732820000000000    0.5112080000000000    0.2621550000000000 N
   0.3864360000000000    0.6089760000000000    0.6292620000000000 N
   0.3707380000000000    0.8864360000000000    0.8910240000000000 N
   0.1089760000000000    0.8707380000000000    0.6135640000000000 N
   0.8864360000000000    0.8910240000000000    0.3707380000000000 N
   0.8707380000000000    0.6135640000000000    0.1089760000000000 N
   0.6089760000000000    0.6292620000000000    0.3864360000000000 N
   0.6135640000000000    0.1089760000000000    0.8707380000000000 N
   0.6292620000000000    0.3864360000000000    0.6089760000000000 N
   0.8910240000000000    0.3707380000000000    0.8864360000000000 N
   0.1135640000000000    0.3910240000000000    0.1292620000000000 N
   0.1292620000000000    0.1135640000000000    0.3910240000000000 N
   0.3910240000000000    0.1292620000000000    0.1135640000000000 N
   0.7084250000000000    0.5770450000000000    0.8537050000000000 N
   0.1462950000000000    0.2084250000000000    0.9229550000000000 N
   0.0770450000000000    0.6462950000000000    0.2915750000000000 N
   0.2084250000000000    0.9229550000000000    0.1462950000000000 N
   0.6462950000000000    0.2915750000000000    0.0770450000000000 N
   0.5770450000000000    0.8537050000000000    0.7084250000000000 N
   0.2915750000000000    0.0770450000000000    0.6462950000000000 N
   0.8537050000000000    0.7084250000000000    0.5770450000000000 N
   0.9229550000000000    0.1462950000000000    0.2084250000000000 N
   0.7915750000000000    0.4229550000000000    0.3537050000000000 N
   0.3537050000000000    0.7915750000000000    0.4229550000000000 N
   0.4229550000000000    0.3537050000000000    0.7915750000000000 N
   0.8729540000000000    0.9222850000000000    0.6696660000000000 O
   0.3303340000000000    0.3729540000000000    0.5777150000000000 O
   0.4222850000000000    0.8303340000000000    0.1270460000000000 O
   0.3729540000000000    0.5777150000000000    0.3303340000000000 O
   0.8303340000000000    0.1270460000000000    0.4222850000000000 O
   0.9222850000000000    0.6696660000000000    0.8729540000000000 O
   0.1270460000000000    0.4222850000000000    0.8303340000000000 O
   0.6696660000000000    0.8729540000000000    0.9222850000000000 O
   0.5777150000000000    0.3303340000000000    0.3729540000000000 O
   0.6270460000000000    0.0777150000000000    0.1696660000000000 O
   0.1696660000000000    0.6270460000000000    0.0777150000000000 O
   0.0777150000000000    0.1696660000000000    0.6270460000000000 O
   0.2229420000000000    0.5817810000000000    0.9318810000000000 O
   0.0681190000000000    0.7229420000000000    0.9182190000000000 O
   0.0817810000000000    0.5681190000000000    0.7770580000000000 O
   0.7229420000000000    0.9182190000000000    0.0681190000000000 O
   0.5681190000000000    0.7770580000000000    0.0817810000000000 O
   0.5817810000000000    0.9318810000000000    0.2229420000000000 O
   0.7770580000000000    0.0817810000000000    0.5681190000000000 O
   0.9318810000000000    0.2229420000000000    0.5817810000000000 O
   0.9182190000000000    0.0681190000000000    0.7229420000000000 O
   0.2770580000000000    0.4182190000000000    0.4318810000000000 O
   0.4318810000000000    0.2770580000000000    0.4182190000000000 O
   0.4182190000000000    0.4318810000000000    0.2770580000000000 O
   0.8289670000000000    0.9711660000000000    0.8177110000000000 O
   0.1822890000000000    0.3289670000000000    0.5288340000000000 O
   0.4711660000000000    0.6822890000000000    0.1710330000000000 O
   0.3289670000000000    0.5288340000000000    0.1822890000000000 O
   0.6822890000000000    0.1710330000000000    0.4711660000000000 O
   0.9711660000000000    0.8177110000000000    0.8289670000000000 O
   0.1710330000000000    0.4711660000000000    0.6822890000000000 O
   0.8177110000000000    0.8289670000000000    0.9711660000000000 O
   0.5288340000000000    0.1822890000000000    0.3289670000000000 O
   0.6710330000000000    0.0288340000000000    0.3177110000000000 O
   0.3177110000000000    0.6710330000000000    0.0288340000000000 O
   0.0288340000000000    0.3177110000000000    0.6710330000000000 O
   0.3393040000000000    0.5959530000000000    0.5474470000000000 O
   0.4525530000000000    0.8393040000000001    0.9040470000000000 O
   0.0959530000000000    0.9525530000000000    0.6606959999999999 O
   0.8393040000000001    0.9040470000000000    0.4525530000000000 O
   0.9525530000000000    0.6606959999999999    0.0959530000000000 O
   0.5959530000000000    0.5474470000000000    0.3393040000000000 O
   0.6606959999999999    0.0959530000000000    0.9525530000000000 O
   0.5474470000000000    0.3393040000000000    0.5959530000000000 O
   0.9040470000000000    0.4525530000000000    0.8393040000000001 O
   0.1606960000000000    0.4040470000000000    0.0474470000000000 O
   0.0474470000000000    0.1606960000000000    0.4040470000000000 O
   0.4040470000000000    0.0474470000000000    0.1606960000000000 O
   0.0569200000000000    0.8565620000000000    0.5369080000000001 O
   0.4630920000000000    0.5569200000000000    0.6434380000000000 O
   0.3565620000000000    0.9630919999999999    0.9430800000000000 O
   0.5569200000000000    0.6434380000000000    0.4630920000000000 O
   0.9630919999999999    0.9430800000000000    0.3565620000000000 O
   0.8565620000000000    0.5369080000000001    0.0569200000000000 O
   0.9430800000000000    0.3565620000000000    0.9630919999999999 O
   0.5369080000000001    0.0569200000000000    0.8565620000000000 O
   0.6434380000000000    0.4630920000000000    0.5569200000000000 O
   0.4430800000000000    0.1434380000000000    0.0369080000000000 O
   0.0369080000000000    0.4430800000000000    0.1434380000000000 O
   0.1434380000000000    0.0369080000000000    0.4430800000000000 O
   0.3563560000000000    0.6713590000000000    0.6898640000000000 O
   0.3101360000000000    0.8563560000000000    0.8286410000000000 O
   0.1713590000000000    0.8101360000000000    0.6436440000000000 O
   0.8563560000000000    0.8286410000000000    0.3101360000000000 O
   0.8101360000000000    0.6436440000000000    0.1713590000000000 O
   0.6713590000000000    0.6898640000000000    0.3563560000000000 O
   0.6436440000000000    0.1713590000000000    0.8101360000000000 O
   0.6898640000000000    0.3563560000000000    0.6713590000000000 O
   0.8286410000000000    0.3101360000000000    0.8563560000000000 O
   0.1436440000000000    0.3286410000000000    0.1898640000000000 O
   0.1898640000000000    0.1436440000000000    0.3286410000000000 O
   0.3286410000000000    0.1898640000000000    0.1436440000000000 O
   0.7012090000000000    0.6558220000000000    0.9044460000000000 O
   0.0955540000000000    0.2012090000000000    0.8441780000000000 O
   0.1558220000000000    0.5955540000000000    0.2987910000000000 O
   0.2012090000000000    0.8441780000000000    0.0955540000000000 O
   0.5955540000000000    0.2987910000000000    0.1558220000000000 O
   0.6558220000000000    0.9044460000000000    0.7012090000000000 O
   0.2987910000000000    0.1558220000000000    0.5955540000000000 O
   0.9044460000000000    0.7012090000000000    0.6558220000000000 O
   0.8441780000000000    0.0955540000000000    0.2012090000000000 O
   0.7987910000000000    0.3441780000000000    0.4044460000000000 O
   0.4044460000000000    0.7987910000000000    0.3441780000000000 O
   0.3441780000000000    0.4044460000000000    0.7987910000000000 O
   0.7408340000000000    0.5869920000000000    0.7637640000000000 O
   0.2362360000000000    0.2408340000000000    0.9130080000000000 O
   0.0869920000000000    0.7362360000000000    0.2591660000000000 O
   0.2408340000000000    0.9130080000000000    0.2362360000000000 O
   0.7362360000000000    0.2591660000000000    0.0869920000000000 O
   0.5869920000000000    0.7637640000000000    0.7408340000000000 O
   0.2591660000000000    0.0869920000000000    0.7362360000000000 O
   0.7637640000000000    0.7408340000000000    0.5869920000000000 O
   0.9130080000000000    0.2362360000000000    0.2408340000000000 O
   0.7591660000000000    0.4130080000000000    0.2637640000000000 O
   0.2637640000000000    0.7591660000000000    0.4130080000000000 O
   0.4130080000000000    0.2637640000000000    0.7591660000000000 O
   0.4945220000000000    0.8866700000000000    0.6875670000000000 O
   0.3124330000000000    0.9945220000000000    0.6133300000000000 O
   0.3866700000000000    0.8124330000000000    0.5054780000000000 O
   0.9945220000000000    0.6133300000000000    0.3124330000000000 O
   0.8124330000000000    0.5054780000000000    0.3866700000000000 O
   0.8866700000000000    0.6875670000000000    0.4945220000000000 O
   0.5054780000000000    0.3866700000000000    0.8124330000000000 O
   0.6875670000000000    0.4945220000000000    0.8866700000000000 O
   0.6133300000000000    0.3124330000000000    0.9945220000000000 O
   0.0054780000000000    0.1133300000000000    0.1875670000000000 O
   0.1875670000000000    0.0054780000000000    0.1133300000000000 O
   0.1133300000000000    0.1875670000000000    0.0054780000000000 O
   0.1041920000000000    0.6175450000000000    0.5297220000000000 O
   0.4702780000000000    0.6041920000000000    0.8824550000000000 O
   0.1175450000000000    0.9702780000000000    0.8958080000000000 O
   0.6041920000000000    0.8824550000000000    0.4702780000000000 O
   0.9702780000000000    0.8958080000000000    0.1175450000000000 O
   0.6175450000000000    0.5297220000000000    0.1041920000000000 O
   0.8958080000000000    0.1175450000000000    0.9702780000000000 O
   0.5297220000000000    0.1041920000000000    0.6175450000000000 O
   0.8824550000000000    0.4702780000000000    0.6041920000000000 O
   0.3958080000000000    0.3824550000000000    0.0297220000000000 O
   0.0297220000000000    0.3958080000000000    0.3824550000000000 O
   0.3824550000000000    0.0297220000000000    0.3958080000000000 O
