pymatgen with grid density = 1387 / number of atoms
0
Gamma
4 1 1
