Li12 As4 H64 S16 O32
1.0
   9.8018042899999998    0.0000000000000000   -3.0247916799999999
   0.0000000000000000   10.0744971099999994    0.0000000000000000
   0.0061723700000000    0.0000000000000000   14.4717234599999998
Li As H S O
12 4 64 16 32
direct
   0.5000000000000000    0.5000000000000000   -0.0000000000000000 Li
   0.5000000000000000    0.5000000000000000    0.5000000000000000 Li
   0.2790633400000000    0.2779652400000000    0.0069088200000000 Li
   0.7209366600000000    0.2779652400000000    0.4930911800000000 Li
   0.7209366600000000    0.7220347600000000    0.9930911800000000 Li
   0.2790633400000000    0.7220347600000000    0.5069088200000000 Li
   0.5000000000000000    0.4005116100000000    0.2500000000000000 Li
   0.5000000000000000    0.5994883900000000    0.7500000000000000 Li
   0.0763158000000000    0.1192811600000000    0.9155782300000000 Li
   0.9236842000000000    0.1192811600000000    0.5844217700000000 Li
   0.9236842000000000    0.8807188400000000    0.0844217700000000 Li
   0.0763158000000000    0.8807188400000000    0.4155782300000000 Li
  -0.0000000000000000    0.5919034300000000    0.7500000000000000 As
  -0.0000000000000000    0.4080965700000000    0.2500000000000000 As
   0.5000000000000000    0.0836910000000000    0.7500000000000000 As
   0.5000000000000000    0.9163090000000000    0.2500000000000000 As
   0.6564170900000000    0.5383582400000000    0.1933536600000000 H
   0.3435829100000000    0.5383582400000000    0.3066463400000000 H
   0.3435829100000000    0.4616417600000000    0.8066463400000000 H
   0.6564170900000000    0.4616417600000000    0.6933536600000000 H
   0.5143810200000000    0.6133801300000000    0.1633764200000000 H
   0.4856189800000000    0.6133801300000000    0.3366235800000000 H
   0.4856189800000000    0.3866198700000000    0.8366235800000000 H
   0.5143810200000000    0.3866198700000000    0.6633764200000000 H
   0.2691987500000000    0.5144238600000000    0.0587927200000000 H
   0.7308012500000000    0.5144238600000000    0.4412072800000000 H
   0.7308012500000000    0.4855761400000000    0.9412072800000000 H
   0.2691987500000000    0.4855761400000000    0.5587927200000000 H
   0.2343357200000000    0.5526068900000000    0.9507653500000000 H
   0.7656642800000000    0.5526068900000000    0.5492346500000000 H
   0.7656642800000000    0.4473931100000000    0.0492346500000000 H
   0.2343357200000000    0.4473931100000000    0.4507653500000000 H
   0.5328046400000001    0.2263942400000000    0.0746573700000000 H
   0.4671953600000000    0.2263942400000000    0.4253426300000000 H
   0.4671953600000000    0.7736057600000000    0.9253426300000001 H
   0.5328046400000001    0.7736057600000000    0.5746573699999999 H
   0.5213527600000000    0.2426774600000000    0.9653087000000000 H
   0.4786472400000000    0.2426774600000000    0.5346913000000000 H
   0.4786472400000000    0.7573225400000000    0.0346913000000000 H
   0.5213527600000000    0.7573225400000000    0.4653087000000000 H
   0.2616474800000000    0.3474808800000000    0.1820884000000000 H
   0.7383525200000000    0.3474808800000000    0.3179116000000000 H
   0.7383525200000000    0.6525191200000000    0.8179116000000000 H
   0.2616474800000000    0.6525191200000000    0.6820884000000000 H
   0.3395589800000000    0.2099440900000000    0.2060838100000000 H
   0.6604410200000000    0.2099440900000000    0.2939161900000000 H
   0.6604410200000000    0.7900559100000000    0.7939161900000000 H
   0.3395589800000000    0.7900559100000000    0.7060838100000000 H
   0.0070238700000000    0.3470748600000000    0.9375471600000000 H
   0.9929761300000000    0.3470748600000000    0.5624528400000000 H
   0.9929761300000000    0.6529251400000000    0.0624528400000000 H
   0.0070238700000000    0.6529251400000000    0.4375471600000000 H
   0.0073756300000000    0.2805371400000000    0.0360439500000000 H
   0.9926243700000000    0.2805371400000000    0.4639560500000000 H
   0.9926243700000000    0.7194628600000000    0.9639560500000000 H
   0.0073756300000000    0.7194628600000000    0.5360439500000000 H
   0.3111941100000000    0.0243642800000000    0.9554425900000000 H
   0.6888058900000000    0.0243642800000000    0.5445574100000000 H
   0.6888058900000000    0.9756357200000000    0.0445574100000000 H
   0.3111941100000000    0.9756357200000000    0.4554425900000000 H
   0.2737969400000000    0.9858297800000000    0.0485846100000000 H
   0.7262030600000000    0.9858297800000000    0.4514153900000000 H
   0.7262030600000000    0.0141702200000000    0.9514153900000000 H
   0.2737969400000000    0.0141702200000000    0.5485846100000000 H
   0.1588656200000000    0.2954596100000000    0.7972589200000000 H
   0.8411343800000000    0.2954596100000000    0.7027410800000000 H
   0.8411343800000000    0.7045403900000000    0.2027410800000000 H
   0.1588656200000000    0.7045403900000000    0.2972589200000000 H
   0.2417557800000000    0.1612162700000000    0.8188265300000001 H
   0.7582442200000000    0.1612162700000000    0.6811734699999999 H
   0.7582442200000000    0.8387837299999999    0.1811734700000000 H
   0.2417557800000000    0.8387837299999999    0.3188265300000000 H
   0.9875775400000000    0.8993820600000000    0.8480971700000000 H
   0.0124224600000000    0.8993820600000000    0.6519028300000000 H
   0.0124224600000000    0.1006179400000000    0.1519028300000000 H
   0.9875775400000000    0.1006179400000000    0.3480971700000000 H
   0.8550860700000000    0.9875824400000000    0.8127358099999999 H
   0.1449139300000000    0.9875824400000000    0.6872641900000001 H
   0.1449139300000000    0.0124175600000000    0.1872641900000000 H
   0.8550860700000000    0.0124175600000000    0.3127358100000000 H
   0.8650160700000000    0.4620746500000000    0.8041633400000000 S
   0.1349839300000000    0.4620746500000000    0.6958366600000000 S
   0.1349839300000000    0.5379253500000000    0.1958366600000000 S
   0.8650160700000000    0.5379253500000000    0.3041633400000000 S
   0.1229572400000000    0.7168535500000000    0.8658746899999999 S
   0.8770427600000000    0.7168535500000000    0.6341253100000001 S
   0.8770427600000000    0.2831464500000000    0.1341253100000000 S
   0.1229572400000000    0.2831464500000000    0.3658746900000000 S
   0.3596387900000000    0.9598575499999999    0.8036228900000000 S
   0.6403612100000000    0.9598575499999999    0.6963771100000000 S
   0.6403612100000000    0.0401424500000000    0.1963771100000000 S
   0.3596387900000000    0.0401424500000000    0.3036228900000000 S
   0.6311498900000000    0.2073709200000000    0.8635428700000000 S
   0.3688501100000000    0.2073709200000000    0.6364571300000000 S
   0.3688501100000000    0.7926290800000000    0.1364571300000000 S
   0.6311498900000000    0.7926290800000000    0.3635428700000000 S
   0.5575909500000000    0.5257846300000000    0.1600582300000000 O
   0.4424090500000000    0.5257846300000000    0.3399417700000000 O
   0.4424090500000000    0.4742153700000000    0.8399417700000000 O
   0.5575909500000000    0.4742153700000000    0.6600582300000000 O
   0.2905892600000000    0.4892772100000000   -0.0001749700000000 O
   0.7094107400000000    0.4892772100000000    0.5001749700000000 O
   0.7094107400000000    0.5107227900000000    0.0001749700000000 O
   0.2905892600000000    0.5107227900000000    0.4998250300000000 O
   0.4848548100000000    0.2782099300000000    0.0173162900000000 O
   0.5151451900000000    0.2782099300000000    0.4826837100000000 O
   0.5151451900000000    0.7217900700000000    0.9826837100000000 O
   0.4848548100000000    0.7217900700000000    0.5173162900000000 O
   0.3382840500000000    0.2960738800000000    0.1713399900000000 O
   0.6617159500000001    0.2960738800000000    0.3286600100000000 O
   0.6617159500000001    0.7039261200000000    0.8286600100000000 O
   0.3382840500000000    0.7039261200000000    0.6713399900000000 O
   0.0561522800000000    0.2808739600000000    0.9858155500000000 O
   0.9438477199999999    0.2808739600000000    0.5141844500000000 O
   0.9438477199999999    0.7191260400000000    0.0141844500000000 O
   0.0561522800000000    0.7191260400000000    0.4858155500000000 O
   0.2584518500000000    0.0552326100000000    0.9983148700000000 O
   0.7415481500000000    0.0552326100000000    0.5016851300000000 O
   0.7415481500000000    0.9447673900000000    0.0016851300000000 O
   0.2584518500000000    0.9447673900000000    0.4983148700000000 O
   0.1882484700000000    0.2234555500000000    0.8460147900000000 O
   0.8117515300000000    0.2234555500000000    0.6539852100000000 O
   0.8117515300000000    0.7765444500000001    0.1539852100000000 O
   0.1882484700000000    0.7765444500000001    0.3460147900000000 O
   0.9458258200000000    0.9836843300000000    0.8606977099999999 O
   0.0541741800000000    0.9836843300000000    0.6393022900000001 O
   0.0541741800000000    0.0163156700000000    0.1393022900000000 O
   0.9458258200000000    0.0163156700000000    0.3606977100000000 O
