pymatgen with grid density = 1671 / number of atoms
0
Gamma
2 2 5
