Li1 Mg14 Al1 O16
1.0
   8.4787529999999993    0.0000000000000000    0.0000000000000000
   0.0000000000000000    8.4787529999999993    0.0000000000000000
   0.0000000000000000    0.0000000000000000    4.2290299999999998
Li Mg Al O
1 14 1 16
direct
   0.5000000000000000    0.5000000000000000    0.0000000000000000 Li
   0.5000000000000000    0.0000000000000000    0.0000000000000000 Mg
   0.0000000000000000    0.5000000000000000    0.0000000000000000 Mg
   0.2519510000000000    0.0000000000000000    0.5000000000000000 Mg
   0.7480490000000000    0.0000000000000000    0.5000000000000000 Mg
   0.2574750000000000    0.5000000000000000    0.5000000000000000 Mg
   0.7425250000000000    0.5000000000000000    0.5000000000000000 Mg
   0.0000000000000000    0.2519510000000000    0.5000000000000000 Mg
   0.5000000000000000    0.2574750000000000    0.5000000000000000 Mg
   0.0000000000000000    0.7480490000000000    0.5000000000000000 Mg
   0.5000000000000000    0.7425250000000000    0.5000000000000000 Mg
   0.2556810000000000    0.2556810000000000    0.0000000000000000 Mg
   0.7443190000000000    0.2556810000000000    0.0000000000000000 Mg
   0.2556810000000000    0.7443190000000000    0.0000000000000000 Mg
   0.7443190000000000    0.7443190000000000    0.0000000000000000 Mg
   0.0000000000000000    0.0000000000000000    0.0000000000000000 Al
   0.0000000000000000    0.2292280000000000    0.0000000000000000 O
   0.5000000000000000    0.2387200000000000    0.0000000000000000 O
   0.0000000000000000    0.7707720000000000    0.0000000000000000 O
   0.5000000000000000    0.7612800000000000    0.0000000000000000 O
   0.2486390000000000    0.2486390000000000    0.5000000000000000 O
   0.7513609999999999    0.2486390000000000    0.5000000000000000 O
   0.2486390000000000    0.7513609999999999    0.5000000000000000 O
   0.7513609999999999    0.7513609999999999    0.5000000000000000 O
   0.0000000000000000    0.0000000000000000    0.5000000000000000 O
   0.5000000000000000    0.0000000000000000    0.5000000000000000 O
   0.0000000000000000    0.5000000000000000    0.5000000000000000 O
   0.5000000000000000    0.5000000000000000    0.5000000000000000 O
   0.2292280000000000    0.0000000000000000    0.0000000000000000 O
   0.7707720000000000    0.0000000000000000    0.0000000000000000 O
   0.2387200000000000    0.5000000000000000    0.0000000000000000 O
   0.7612800000000000    0.5000000000000000    0.0000000000000000 O
