pymatgen with grid density = 867 / number of atoms
0
Gamma
5 5 5
