Li1 Eu1 Y1 O2
1.0
   1.7173000000000000    0.9414630000000000    8.9557909999999996
  -1.7173000000000000    0.9414630000000000    8.9557909999999996
   0.0000000000000000   -2.0325139999999999    8.9805299999999999
Li Eu Y O
1 1 1 2
direct
   0.9136800000000000    0.9136800000000000    0.8926220000000000 Li
   0.0293390000000000    0.0293390000000000    0.0462330000000000 Eu
   0.4810610000000000    0.4810610000000000    0.4789090000000000 Y
   0.1948900000000000    0.1948900000000000    0.1851590000000000 O
   0.7664470000000000    0.7664470000000000    0.7720770000000000 O
