Rb2 Li4 B6 Sb4 O18
1.0
   5.6240259999999997    0.0000000000000000    0.0000000000000000
   0.0000000000000000    6.3812110000000004    0.0000000000000000
   0.0000000000000000    0.5560530000000000   13.1247340000000001
Rb Li B Sb O
2 4 6 4 18
direct
   0.7848690000000000    0.0000000000000000    0.7500000000000000 Rb
   0.2151310000000000    0.0000000000000000    0.2500000000000000 Rb
   0.8852930000000000    0.4859390000000000    0.8557270000000000 Li
   0.8852930000000000    0.5140610000000000    0.6442730000000000 Li
   0.1147070000000000    0.4859390000000000    0.3557270000000000 Li
   0.1147070000000000    0.5140610000000000    0.1442730000000000 Li
   0.1621400000000000    0.8283010000000000    0.9722480000000000 B
   0.8378600000000000    0.8283010000000000    0.4722480000000000 B
   0.3902220000000000    0.5000000000000000    0.7500000000000000 B
   0.6097780000000000    0.5000000000000000    0.2500000000000000 B
   0.1621400000000000    0.1716990000000000    0.5277520000000000 B
   0.8378600000000000    0.1716990000000000    0.0277520000000000 B
   0.3678630000000000    0.7299770000000000    0.5386810000000000 Sb
   0.6321369999999999    0.7299770000000000    0.0386810000000000 Sb
   0.3678630000000000    0.2700230000000000    0.9613190000000000 Sb
   0.6321369999999999    0.2700230000000000    0.4613190000000000 Sb
   0.2974500000000000    0.9778370000000000    0.9141800000000000 O
   0.7025500000000000    0.9778370000000000    0.4141800000000000 O
   0.9584250000000000    0.7470010000000000    0.9331810000000000 O
   0.0415750000000000    0.7470010000000000    0.4331810000000000 O
   0.7522440000000000    0.7598900000000000    0.5668910000000000 O
   0.2477560000000000    0.7598900000000000    0.0668910000000000 O
   0.2443180000000000    0.6032080000000000    0.6744580000000000 O
   0.7556820000000000    0.6032080000000000    0.1744580000000000 O
   0.6292780000000000    0.5000000000000000    0.7500000000000000 O
   0.3707220000000000    0.5000000000000000    0.2500000000000000 O
   0.2443180000000000    0.3967920000000000    0.8255420000000000 O
   0.7556820000000000    0.3967920000000000    0.3255420000000000 O
   0.7522440000000000    0.2401100000000000    0.9331090000000000 O
   0.2477560000000000    0.2401100000000000    0.4331090000000000 O
   0.9584250000000000    0.2529990000000000    0.5668190000000000 O
   0.0415750000000000    0.2529990000000000    0.0668190000000000 O
   0.2974500000000000    0.0221630000000000    0.5858200000000000 O
   0.7025500000000000    0.0221630000000000    0.0858200000000000 O
