Li1 In1 I4 O12
1.0
   4.9780490000000004    0.0000000000000000    0.0000000000000000
   0.0773750000000000    6.5918880000000000    0.0000000000000000
   0.1224450000000000    0.7761560000000000    8.6601649999999992
Li In I O
1 1 4 12
direct
   0.5000000000000000    0.0000000000000000    0.5000000000000000 Li
   0.5000000000000000    0.5000000000000000    0.5000000000000000 In
   0.5201480000000001    0.8045220000000000    0.1561590000000000 I
   0.0104800000000000    0.2825290000000000    0.2389720000000000 I
   0.9895200000000000    0.7174710000000000    0.7610280000000000 I
   0.4798520000000000    0.1954780000000000    0.8438410000000000 I
   0.7443820000000000    0.6236370000000000    0.0708480000000000 O
   0.7102579999999999    0.0402400000000000    0.1016880000000000 O
   0.2254020000000000    0.4877690000000000    0.3065000000000000 O
   0.2176220000000000    0.0654110000000000    0.3056830000000000 O
   0.6425650000000001    0.7672200000000000    0.3619070000000000 O
   0.7577720000000000    0.2689040000000000    0.3980240000000000 O
   0.2422280000000000    0.7310960000000000    0.6019760000000000 O
   0.3574350000000000    0.2327800000000000    0.6380930000000000 O
   0.7823780000000000    0.9345890000000000    0.6943170000000000 O
   0.7745980000000000    0.5122310000000000    0.6935000000000000 O
   0.2897420000000000    0.9597599999999999    0.8983120000000000 O
   0.2556180000000000    0.3763630000000000    0.9291520000000000 O
