Li10 Sb4 P10 O36
1.0
  -6.8459230000000000    0.0000000000000000    0.0000000000000000
   0.2169120000000000    9.5056440000000002    0.0000000000000000
  -0.0134630000000000   -1.5802540000000000  -11.0151100000000000
Li Sb P O
10 4 10 36
direct
   0.0192170000000000    0.0325720000000000    0.8682180000000000 Li
   0.8177070000000000    0.1141420000000000    0.3516760000000000 Li
   0.1395180000000000    0.2259640000000000    0.6655560000000000 Li
   0.5839569999999999    0.2759780000000000    0.5998970000000000 Li
   0.3291890000000000    0.3772880000000000    0.8558740000000000 Li
   0.6708110000000000    0.6227120000000000    0.1441260000000000 Li
   0.4160430000000000    0.7240220000000001    0.4001030000000000 Li
   0.8604820000000000    0.7740359999999999    0.3344440000000000 Li
   0.1822930000000000    0.8858580000000000    0.6483240000000000 Li
   0.9807830000000000    0.9674280000000000    0.1317820000000000 Li
   0.6552370000000000    0.2430390000000000    0.0517770000000000 Sb
   0.2166560000000000    0.3637990000000000    0.3998370000000000 Sb
   0.7833440000000000    0.6362010000000000    0.6001630000000000 Sb
   0.3447630000000000    0.7569610000000000    0.9482230000000000 Sb
   0.4752720000000000    0.0720450000000000    0.7849140000000000 P
   0.2199060000000000    0.0089580000000000    0.3997850000000000 P
   0.1808120000000000    0.2671970000000000    0.0985200000000000 P
   0.8550700000000000    0.4195390000000000    0.8342830000000000 P
   0.6926650000000000    0.4207490000000000    0.3325900000000000 P
   0.3073350000000000    0.5792510000000000    0.6674099999999999 P
   0.1449300000000000    0.5804610000000000    0.1657170000000000 P
   0.8191880000000000    0.7328030000000000    0.9014799999999999 P
   0.7800940000000000    0.9910420000000000    0.6002150000000001 P
   0.5247280000000000    0.9279550000000000    0.2150860000000000 P
   0.9557490000000000    0.0243380000000000    0.6850340000000000 O
   0.6300530000000000    0.0917790000000000    0.8880420000000000 O
   0.4183280000000000    0.0267320000000000    0.3242200000000000 O
   0.7028120000000000    0.0168090000000000    0.1874350000000000 O
   0.7425970000000000    0.1042430000000000    0.5202570000000000 O
   0.4203110000000000    0.2095300000000000    0.7373430000000000 O
   0.2069310000000000    0.1630620000000000    0.4735680000000000 O
   0.0331510000000000    0.1541610000000000    0.0437040000000000 O
   0.0366280000000000    0.3315780000000000    0.8290770000000000 O
   0.2601090000000000    0.2424380000000000    0.2222780000000000 O
   0.7046200000000000    0.3914910000000000    0.9350550000000000 O
   0.8564700000000000    0.3136510000000000    0.3335130000000000 O
   0.3571280000000000    0.2839570000000000    0.0118540000000000 O
   0.7529670000000001    0.4195300000000000    0.7123880000000000 O
   0.5222510000000000    0.3639070000000000    0.4116960000000000 O
   0.2495040000000000    0.4256410000000000    0.6086060000000000 O
   0.6235270000000001    0.4332810000000000    0.2011240000000000 O
   0.0695160000000000    0.4164610000000000    0.1155130000000000 O
   0.9304840000000000    0.5835390000000000    0.8844870000000000 O
   0.3764730000000000    0.5667190000000000    0.7988760000000000 O
   0.7504960000000001    0.5743590000000000    0.3913940000000000 O
   0.4777490000000000    0.6360930000000000    0.5883040000000000 O
   0.2470330000000000    0.5804700000000000    0.2876120000000000 O
   0.6428720000000000    0.7160430000000000    0.9881460000000000 O
   0.1435300000000000    0.6863490000000000    0.6664870000000001 O
   0.2953800000000000    0.6085090000000000    0.0649450000000000 O
   0.7398910000000000    0.7575620000000000    0.7777220000000000 O
   0.9633720000000000    0.6684220000000000    0.1709230000000000 O
   0.9668490000000000    0.8458390000000000    0.9562960000000000 O
   0.7930690000000000    0.8369380000000000    0.5264320000000000 O
   0.5796890000000000    0.7904700000000000    0.2626570000000000 O
   0.2574030000000000    0.8957570000000000    0.4797430000000000 O
   0.2971880000000000    0.9831910000000000    0.8125650000000000 O
   0.5816720000000000    0.9732680000000000    0.6757800000000000 O
   0.3699470000000000    0.9082209999999999    0.1119580000000000 O
   0.0442510000000000    0.9756620000000000    0.3149660000000000 O
