Li6 Zn6 P6 O24
1.0
   5.0507780000000002   -6.9379059999999999    0.0000000000000000
   5.0507780000000002    6.9379059999999999    0.0000000000000000
  -4.4793459999999996    0.0000000000000000    7.3198600000000003
Li Zn P O
6 6 6 24
direct
   0.3879090000000000    0.7895440000000000    0.5707080000000000 Li
   0.8730630000000000    0.1060710000000000    0.2781560000000000 Li
   0.1060710000000000    0.2781560000000000    0.8730630000000000 Li
   0.2781560000000000    0.8730630000000000    0.1060710000000000 Li
   0.7895440000000000    0.5707080000000000    0.3879090000000000 Li
   0.5707080000000000    0.3879090000000000    0.7895440000000000 Li
   0.9470110000000000    0.5446070000000000    0.7637220000000000 Zn
   0.5446070000000000    0.7637220000000000    0.9470110000000000 Zn
   0.7637220000000000    0.9470110000000000    0.5446070000000000 Zn
   0.0575030000000000    0.4626440000000000    0.2304360000000000 Zn
   0.4626440000000000    0.2304360000000000    0.0575030000000000 Zn
   0.2304360000000000    0.0575030000000000    0.4626440000000000 Zn
   0.9058320000000000    0.7179690000000000    0.1241910000000000 P
   0.7179690000000000    0.1241910000000000    0.9058320000000000 P
   0.1241910000000000    0.9058320000000000    0.7179690000000000 P
   0.2085590000000000    0.4314710000000000    0.6145960000000000 P
   0.4314710000000000    0.6145960000000000    0.2085590000000000 P
   0.6145960000000000    0.2085590000000000    0.4314710000000000 P
   0.3114450000000000    0.6320500000000000    0.3108800000000000 O
   0.6910920000000000    0.3532770000000000    0.6316500000000000 O
   0.6316500000000000    0.6910920000000000    0.3532770000000000 O
   0.9235910000000001    0.2561200000000000    0.9797990000000000 O
   0.2561200000000000    0.9797990000000000    0.9235910000000001 O
   0.9797990000000000    0.9235910000000001    0.2561200000000000 O
   0.6985690000000000    0.0234400000000000    0.0272860000000000 O
   0.0234400000000000    0.0272860000000000    0.6985690000000000 O
   0.0272860000000000    0.6985690000000000    0.0234400000000000 O
   0.3532770000000000    0.6316500000000000    0.6910920000000000 O
   0.3108800000000000    0.3114450000000000    0.6320500000000000 O
   0.6320500000000000    0.3108800000000000    0.3114450000000000 O
   0.4106950000000000    0.0752640000000000    0.3596210000000000 O
   0.3596210000000000    0.4106950000000000    0.0752640000000000 O
   0.0752640000000000    0.3596210000000000    0.4106950000000000 O
   0.6433449999999999    0.9800120000000000    0.7067639999999999 O
   0.7067639999999999    0.6433449999999999    0.9800120000000000 O
   0.9800120000000000    0.7067639999999999    0.6433449999999999 O
   0.2353500000000000    0.9144270000000000    0.6052990000000000 O
   0.6052990000000000    0.2353500000000000    0.9144270000000000 O
   0.9144270000000000    0.6052990000000000    0.2353500000000000 O
   0.7290080000000000    0.0997500000000000    0.4184000000000000 O
   0.4184000000000000    0.7290080000000000    0.0997500000000000 O
   0.0997500000000000    0.4184000000000000    0.7290080000000000 O
