Li14 Sb4 P14 O48
1.0
   5.2720570000000002    0.0000000000000000    0.0000000000000000
   0.0000000000000000   12.0716219999999996    0.0000000000000000
   0.0000000000000000    1.7239430000000000   15.7678820000000002
Li Sb P O
14 4 14 48
direct
   0.2646910000000000    0.4799210000000000    0.0540160000000000 Li
   0.1883830000000000    0.1112360000000000    0.1360400000000000 Li
   0.7353090000000000    0.9799210000000000    0.0540160000000000 Li
   0.8116170000000000    0.6112360000000000    0.1360400000000000 Li
   0.8441340000000001    0.4453550000000000    0.4176130000000000 Li
   0.1558660000000000    0.9453549999999999    0.4176130000000000 Li
   0.2926280000000000    0.2500000000000000    0.5000000000000000 Li
   0.7073720000000000    0.7500000000000000    0.5000000000000000 Li
   0.8441340000000001    0.0546450000000000    0.5823870000000000 Li
   0.1558660000000000    0.5546450000000001    0.5823870000000000 Li
   0.1883830000000000    0.3887640000000000    0.8639600000000000 Li
   0.2646910000000000    0.0200790000000000    0.9459840000000000 Li
   0.8116170000000000    0.8887640000000000    0.8639600000000000 Li
   0.7353090000000000    0.5200790000000000    0.9459840000000000 Li
   0.3482470000000000    0.3069790000000000    0.2752500000000000 Sb
   0.6517530000000000    0.8069790000000000    0.2752500000000000 Sb
   0.3482470000000000    0.1930210000000000    0.7247500000000000 Sb
   0.6517530000000000    0.6930210000000000    0.7247500000000000 Sb
   0.5568980000000000    0.2500000000000000    0.0000000000000000 P
   0.4431020000000000    0.7500000000000000    0.0000000000000000 P
   0.8728620000000000    0.3436040000000000    0.1311530000000000 P
   0.1271380000000000    0.8436040000000000    0.1311530000000000 P
   0.6169130000000000    0.0542690000000000    0.2762930000000000 P
   0.3830870000000000    0.5542690000000000    0.2762930000000000 P
   0.8316120000000000    0.1927190000000000    0.3992070000000000 P
   0.1683880000000000    0.6927190000000000    0.3992070000000000 P
   0.8316120000000000    0.3072810000000000    0.6007930000000000 P
   0.1683880000000000    0.8072810000000000    0.6007930000000000 P
   0.6169130000000000    0.4457310000000000    0.7237070000000000 P
   0.3830870000000000    0.9457310000000000    0.7237070000000000 P
   0.8728620000000000    0.1563960000000000    0.8688470000000000 P
   0.1271380000000000    0.6563960000000000    0.8688470000000000 P
   0.4201580000000000    0.1393940000000000    0.0145250000000000 O
   0.5798420000000000    0.6393940000000000    0.0145250000000000 O
   0.7495510000000000    0.2484180000000000    0.0780950000000000 O
   0.8998030000000000    0.4533720000000000    0.0753620000000000 O
   0.2504490000000000    0.7484180000000000    0.0780950000000000 O
   0.1001970000000000    0.9533720000000000    0.0753620000000000 O
   0.1268610000000000    0.2843640000000000    0.1548970000000000 O
   0.7459420000000000    0.9993020000000000    0.2049470000000000 O
   0.6989069999999999    0.3534850000000000    0.2069170000000000 O
   0.8731390000000000    0.7843640000000000    0.1548970000000000 O
   0.2540580000000000    0.4993020000000000    0.2049470000000000 O
   0.4091810000000000    0.1360860000000000    0.2392450000000000 O
   0.3010930000000000    0.8534850000000000    0.2069170000000000 O
   0.5908190000000000    0.6360860000000000    0.2392450000000000 O
   0.8419820000000000    0.1258860000000000    0.3139890000000000 O
   0.1580180000000000    0.6258860000000001    0.3139890000000000 O
   0.9985849999999999    0.2963620000000000    0.3758670000000000 O
   0.4866800000000000    0.4696160000000000    0.3474520000000000 O
   0.5500380000000000    0.2234120000000000    0.4089020000000000 O
   0.0014150000000000    0.7963620000000000    0.3758670000000000 O
   0.5133200000000000    0.9696160000000000    0.3474520000000000 O
   0.4499620000000000    0.7234120000000001    0.4089020000000000 O
   0.9473510000000001    0.1138760000000000    0.4698550000000000 O
   0.0526490000000000    0.6138760000000000    0.4698550000000000 O
   0.9473510000000001    0.3861240000000000    0.5301450000000000 O
   0.0526490000000000    0.8861240000000000    0.5301450000000000 O
   0.5500380000000000    0.2765880000000000    0.5910980000000000 O
   0.4866800000000000    0.0303840000000000    0.6525480000000000 O
   0.9985849999999999    0.2036380000000000    0.6241330000000000 O
   0.4499620000000000    0.7765879999999999    0.5910980000000000 O
   0.5133200000000000    0.5303840000000000    0.6525480000000000 O
   0.0014150000000000    0.7036380000000000    0.6241330000000000 O
   0.8419820000000000    0.3741140000000000    0.6860110000000000 O
   0.1580180000000000    0.8741139999999999    0.6860110000000000 O
   0.4091810000000000    0.3639140000000000    0.7607550000000000 O
   0.6989069999999999    0.1465150000000000    0.7930830000000000 O
   0.5908190000000000    0.8639140000000000    0.7607550000000000 O
   0.7459420000000000    0.5006980000000000    0.7950530000000000 O
   0.1268610000000000    0.2156360000000000    0.8451030000000000 O
   0.3010930000000000    0.6465150000000000    0.7930830000000000 O
   0.2540580000000000    0.0006980000000000    0.7950530000000000 O
   0.8731390000000000    0.7156360000000000    0.8451030000000000 O
   0.8998030000000000    0.0466280000000000    0.9246380000000000 O
   0.7495510000000000    0.2515820000000000    0.9219050000000000 O
   0.1001970000000000    0.5466280000000000    0.9246380000000000 O
   0.2504490000000000    0.7515820000000000    0.9219050000000000 O
   0.4201580000000000    0.3606060000000000    0.9854750000000000 O
   0.5798420000000000    0.8606060000000000    0.9854750000000000 O
