Li4 Sb4 P16 O48
1.0
   5.2132160000000001   -5.9779380000000000    0.0000000000000000
   5.2132160000000001    5.9779380000000000    0.0000000000000000
   0.0000000000000000    0.0000000000000000   17.4137030000000017
Li Sb P O
4 4 16 48
direct
   0.1054800000000000    0.1781910000000000    0.3564230000000000 Li
   0.8218090000000000    0.8945200000000000    0.1435770000000000 Li
   0.8945200000000000    0.8218090000000000    0.8564230000000000 Li
   0.1781910000000000    0.1054800000000000    0.6435770000000000 Li
   0.0154170000000000    0.4334630000000000    0.6351670000000000 Sb
   0.5665370000000000    0.9845830000000000    0.8648330000000000 Sb
   0.4334630000000000    0.0154170000000000    0.3648330000000000 Sb
   0.9845830000000000    0.5665370000000000    0.1351670000000000 Sb
   0.0362640000000000    0.7435710000000000    0.3432580000000000 P
   0.2564290000000000    0.9637360000000000    0.1567420000000000 P
   0.2180620000000000    0.6847060000000000    0.4881900000000000 P
   0.3152940000000000    0.7819380000000000    0.0118100000000000 P
   0.3612950000000000    0.6387050000000000    0.7500000000000000 P
   0.6799060000000000    0.7133870000000000    0.3102570000000000 P
   0.2866130000000000    0.3200940000000000    0.1897430000000000 P
   0.3479490000000000    0.3479490000000000    0.5000000000000000 P
   0.6520510000000000    0.6520510000000000    0.0000000000000000 P
   0.3200940000000000    0.2866130000000000    0.8102570000000000 P
   0.7133870000000000    0.6799060000000000    0.6897430000000000 P
   0.6387050000000000    0.3612950000000000    0.2500000000000000 P
   0.6847060000000000    0.2180620000000000    0.5118100000000000 P
   0.7819380000000000    0.3152940000000000    0.9881900000000000 P
   0.7435710000000000    0.0362640000000000    0.6567420000000000 P
   0.9637360000000000    0.2564290000000000    0.8432580000000000 P
   0.1027870000000000    0.9298520000000000    0.3521220000000000 O
   0.0701480000000000    0.8972130000000000    0.1478780000000000 O
   0.0585350000000000    0.6462800000000000    0.2716570000000000 O
   0.3537200000000000    0.9414650000000000    0.2283430000000000 O
   0.1405410000000000    0.6838070000000001    0.0170110000000000 O
   0.3161930000000000    0.8594590000000000    0.4829890000000000 O
   0.3547090000000000    0.8992289999999999    0.9432330000000000 O
   0.1007710000000000    0.6452909999999999    0.5567670000000000 O
   0.3646290000000000    0.8916100000000000    0.0879560000000000 O
   0.1083900000000000    0.6353710000000000    0.4120440000000000 O
   0.1953470000000000    0.6103570000000000    0.7071780000000000 O
   0.3896430000000000    0.8046530000000000    0.7928220000000000 O
   0.2140300000000000    0.4596490000000000    0.1460110000000000 O
   0.5403510000000000    0.7859699999999999    0.3539890000000000 O
   0.3512180000000000    0.5479520000000000    0.4849380000000000 O
   0.4520480000000000    0.6487820000000000    0.0150620000000000 O
   0.5101040000000000    0.6182540000000000    0.6895960000000000 O
   0.3817460000000000    0.4898960000000000    0.8104040000000000 O
   0.1630800000000000    0.2746610000000000    0.8687060000000000 O
   0.7253390000000000    0.8369200000000000    0.6312940000000000 O
   0.7290750000000000    0.7811850000000000    0.2328710000000000 O
   0.2188150000000000    0.2709250000000000    0.2671290000000000 O
   0.7045300000000000    0.7515290000000000    0.9281060000000000 O
   0.2484710000000000    0.2954700000000000    0.5718940000000000 O
   0.2954700000000000    0.2484710000000000    0.4281060000000000 O
   0.7515290000000000    0.7045300000000000    0.0718940000000000 O
   0.2709250000000000    0.2188150000000000    0.7328710000000001 O
   0.7811850000000000    0.7290750000000000    0.7671289999999999 O
   0.8369200000000000    0.7253390000000000    0.3687060000000000 O
   0.2746610000000000    0.1630800000000000    0.1312940000000000 O
   0.4898960000000000    0.3817460000000000    0.1895960000000000 O
   0.6182540000000000    0.5101040000000000    0.3104040000000000 O
   0.5479520000000000    0.3512180000000000    0.5150620000000000 O
   0.6487820000000000    0.4520480000000000    0.9849380000000000 O
   0.4596490000000000    0.2140300000000000    0.8539890000000000 O
   0.7859699999999999    0.5403510000000000    0.6460110000000000 O
   0.8046530000000000    0.3896430000000000    0.2071780000000000 O
   0.6103570000000000    0.1953470000000000    0.2928220000000000 O
   0.6353710000000000    0.1083900000000000    0.5879560000000000 O
   0.8916100000000000    0.3646290000000000    0.9120440000000000 O
   0.6452909999999999    0.1007710000000000    0.4432330000000000 O
   0.8992289999999999    0.3547090000000000    0.0567670000000000 O
   0.6838070000000001    0.1405410000000000    0.9829890000000000 O
   0.8594590000000000    0.3161930000000000    0.5170110000000000 O
   0.6462800000000000    0.0585350000000000    0.7283430000000000 O
   0.9414650000000000    0.3537200000000000    0.7716570000000000 O
   0.8972130000000000    0.0701480000000000    0.8521220000000000 O
   0.9298520000000000    0.1027870000000000    0.6478780000000000 O
