K4 Li4 S4 O16
1.0
   5.1684469999999996    0.0000000000000000    0.0000000000000000
   0.0000000000000000    8.9506259999999997    0.0000000000000000
   0.0000000000000000    0.0000000000000000    9.1029280000000004
K Li S O
4 4 4 16
direct
   0.7339850000000000    0.9964900000000000    0.7114960000000000 K
   0.7339850000000000    0.4964900000000000    0.7885040000000000 K
   0.2339850000000000    0.5035100000000000    0.2114960000000000 K
   0.2339850000000000    0.0035100000000000    0.2885040000000000 K
   0.7111370000000000    0.3419750000000000    0.3893920000000000 Li
   0.7111370000000000    0.8419750000000000    0.1106080000000000 Li
   0.2111370000000000    0.6580250000000000    0.6106080000000000 Li
   0.2111370000000000    0.1580250000000000    0.8893920000000000 Li
   0.2071120000000000    0.7867080000000000    0.9309650000000000 S
   0.7071120000000000    0.2132920000000000    0.0690350000000000 S
   0.7071120000000000    0.7132920000000000    0.4309650000000000 S
   0.2071120000000000    0.2867080000000000    0.5690350000000000 S
   0.9292570000000000    0.7510510000000000    0.9607520000000001 O
   0.8564710000000000    0.2268600000000000    0.9286020000000000 O
   0.2309330000000000    0.4410180000000000    0.6281639999999999 O
   0.8088040000000000    0.8213130000000000    0.3209900000000000 O
   0.4292570000000000    0.7489490000000000    0.4607520000000000 O
   0.3564710000000000    0.7731400000000000    0.0713980000000000 O
   0.8088040000000000    0.3213130000000000    0.1790100000000000 O
   0.2309330000000000    0.9410180000000000    0.8718360000000001 O
   0.3564710000000000    0.2731400000000000    0.4286020000000000 O
   0.3088040000000000    0.1786870000000000    0.6790100000000000 O
   0.8564710000000000    0.7268600000000000    0.5713980000000000 O
   0.3088040000000000    0.6786870000000000    0.8209900000000000 O
   0.9292570000000000    0.2510510000000000    0.5392479999999999 O
   0.4292570000000000    0.2489490000000000    0.0392480000000000 O
   0.7309330000000001    0.5589820000000000    0.3718360000000000 O
   0.7309330000000001    0.0589820000000000    0.1281640000000000 O
