pymatgen with grid density = 1147 / number of atoms
0
Gamma
3 2 1
