Rb8 Li8 S8 O32
1.0
   5.3878430000000002    0.0000000000000000    0.0000000000000000
   0.0000000000000000    9.3557710000000007    0.0000000000000000
   0.0000000000000000    0.0412890000000000   17.8030870000000014
Rb Li S O
8 8 8 32
direct
   0.7531460000000000    0.2154220000000000    0.2509660000000000 Rb
   0.2531460000000000    0.7845780000000000    0.2490340000000000 Rb
   0.2468540000000000    0.7845780000000000    0.7490340000000000 Rb
   0.7468540000000000    0.2154220000000000    0.7509660000000000 Rb
   0.7404700000000000    0.2833160000000000    0.5009310000000000 Rb
   0.2404700000000000    0.7166840000000000    0.9990690000000000 Rb
   0.2595300000000000    0.7166840000000000    0.4990690000000000 Rb
   0.7595300000000000    0.2833160000000000    0.0009310000000000 Rb
   0.2453650000000000    0.4163820000000000    0.1621370000000000 Li
   0.7453650000000001    0.5836180000000000    0.3378630000000000 Li
   0.7546349999999999    0.5836180000000000    0.8378630000000000 Li
   0.2546350000000000    0.4163820000000000    0.6621370000000000 Li
   0.2427120000000000    0.0844150000000000    0.4114480000000000 Li
   0.7427120000000000    0.9155850000000000    0.0885520000000000 Li
   0.7572880000000000    0.9155850000000000    0.5885520000000000 Li
   0.2572880000000000    0.0844150000000000    0.9114480000000000 Li
   0.2442800000000000    0.0822980000000000    0.1025070000000000 S
   0.7442800000000001    0.9177020000000000    0.3974930000000000 S
   0.7557199999999999    0.9177020000000000    0.8974930000000000 S
   0.2557200000000000    0.0822980000000000    0.6025070000000000 S
   0.2451340000000000    0.4162250000000000    0.3528370000000000 S
   0.7451340000000000    0.5837750000000000    0.1471630000000000 S
   0.7548660000000000    0.5837750000000000    0.6471630000000000 S
   0.2548660000000000    0.4162250000000000    0.8528370000000000 S
   0.2525900000000000    0.0885430000000000    0.0193940000000000 O
   0.7525900000000000    0.9114570000000000    0.4806060000000000 O
   0.7474100000000000    0.9114570000000000    0.9806060000000000 O
   0.2474100000000000    0.0885430000000000    0.5193940000000000 O
   0.2471710000000000    0.4030850000000000    0.2698550000000000 O
   0.7471710000000000    0.5969150000000000    0.2301450000000000 O
   0.7528290000000000    0.5969150000000000    0.7301450000000000 O
   0.2528290000000000    0.4030850000000000    0.7698550000000000 O
   0.1592020000000000    0.2229600000000000    0.1320790000000000 O
   0.6592020000000000    0.7770400000000000    0.3679210000000000 O
   0.8407980000000000    0.7770400000000000    0.8679210000000001 O
   0.3407980000000000    0.2229600000000000    0.6320789999999999 O
   0.1579470000000000    0.2795400000000000    0.3865820000000000 O
   0.6579469999999999    0.7204600000000000    0.1134180000000000 O
   0.8420530000000001    0.7204600000000000    0.6134180000000000 O
   0.3420530000000000    0.2795400000000000    0.8865820000000000 O
   0.4957030000000000    0.0469440000000000    0.1328560000000000 O
   0.9957030000000000    0.9530560000000000    0.3671440000000000 O
   0.5042970000000000    0.9530560000000000    0.8671440000000000 O
   0.0042970000000000    0.0469440000000000    0.6328560000000000 O
   0.5010990000000000    0.4496870000000000    0.3803370000000000 O
   0.0010990000000000    0.5503130000000001    0.1196630000000000 O
   0.4989010000000000    0.5503130000000001    0.6196630000000000 O
   0.9989010000000000    0.4496870000000000    0.8803370000000000 O
   0.0657310000000000    0.9692570000000000    0.1275330000000000 O
   0.5657310000000000    0.0307430000000000    0.3724670000000000 O
   0.9342690000000000    0.0307430000000000    0.8724670000000000 O
   0.4342690000000000    0.9692570000000000    0.6275330000000000 O
   0.0734410000000000    0.5336980000000000    0.3761290000000000 O
   0.5734410000000000    0.4663020000000000    0.1238710000000000 O
   0.9265590000000000    0.4663020000000000    0.6238710000000000 O
   0.4265590000000000    0.5336980000000000    0.8761290000000000 O
