pymatgen with grid density = 1113 / number of atoms
0
Gamma
4 2 1
