Li4 Bi8 P4 O24
1.0
   5.6707470000000004    0.0000000000000000    0.0000000000000000
   0.0000000000000000    9.9557079999999996    0.0000000000000000
   0.0000000000000000    9.9452300000000005   10.1039879999999993
Li Bi P O
4 8 4 24
direct
   0.2438170000000000    0.8885970000000000    0.0007590000000000 Li
   0.2561830000000000    0.8885970000000000    0.5007590000000000 Li
   0.7438170000000000    0.1114030000000000    0.4992410000000000 Li
   0.7561830000000000    0.1114030000000000    0.9992410000000000 Li
   0.2338360000000000    0.8572340000000001    0.7504220000000000 Bi
   0.7342560000000000    0.6408720000000000    0.7494840000000000 Bi
   0.2342560000000000    0.3591280000000000    0.7505160000000000 Bi
   0.7338360000000000    0.1427660000000000    0.7495780000000000 Bi
   0.2661640000000000    0.8572340000000001    0.2504220000000000 Bi
   0.7657440000000000    0.6408720000000000    0.2494840000000000 Bi
   0.2657440000000000    0.3591280000000000    0.2505160000000000 Bi
   0.7661640000000000    0.1427660000000000    0.2495780000000000 Bi
   0.7477810000000000    0.6590720000000000    0.9986360000000000 P
   0.7522190000000000    0.6590720000000000    0.4986360000000000 P
   0.2477810000000000    0.3409280000000000    0.5013640000000000 P
   0.2522190000000000    0.3409280000000000    0.0013640000000000 P
   0.0589140000000000    0.3136190000000000    0.9377340000000000 O
   0.5513570000000000    0.8120889999999999    0.9336220000000000 O
   0.8639040000000000    0.6784680000000000    0.8895910000000000 O
   0.3652530000000000    0.5405150000000000    0.8908940000000000 O
   0.5522200000000000    0.1960150000000000    0.8516319999999999 O
   0.0498410000000000    0.1036850000000000    0.8522300000000000 O
   0.0522200000000000    0.8039849999999999    0.6483680000000001 O
   0.5498410000000000    0.8963150000000000    0.6477700000000000 O
   0.8652530000000000    0.4594850000000000    0.6091060000000000 O
   0.3639040000000000    0.3215320000000000    0.6104090000000000 O
   0.0513570000000000    0.1879110000000000    0.5663780000000000 O
   0.5589140000000000    0.6863810000000000    0.5622660000000000 O
   0.4410860000000000    0.3136190000000000    0.4377340000000000 O
   0.9486430000000000    0.8120889999999999    0.4336220000000000 O
   0.6360960000000000    0.6784680000000000    0.3895910000000000 O
   0.1347470000000000    0.5405150000000000    0.3908940000000000 O
   0.4501590000000000    0.1036850000000000    0.3522300000000000 O
   0.9477800000000000    0.1960150000000000    0.3516320000000000 O
   0.9501590000000000    0.8963150000000000    0.1477700000000000 O
   0.4477800000000000    0.8039849999999999    0.1483680000000000 O
   0.6347470000000000    0.4594850000000000    0.1091060000000000 O
   0.1360960000000000    0.3215320000000000    0.1104090000000000 O
   0.4486430000000000    0.1879110000000000    0.0663780000000000 O
   0.9410860000000000    0.6863810000000000    0.0622660000000000 O
