Na3 Li1 Ga4 Si8 O24
1.0
   8.7818989999999992    0.0000000000000000    0.0000000000000000
   0.0000000000000000    5.3419030000000003    0.0000000000000000
   0.0000000000000000    2.2689970000000002    9.2118660000000006
Na Li Ga Si O
3 1 4 8 24
direct
   0.2979350000000000    0.0000000000000000    0.0000000000000000 Na
   0.2022380000000000    0.0000000000000000    0.5000000000000000 Na
   0.7026829999999999    0.5000000000000000    0.0000000000000000 Na
   0.7805900000000000    0.5000000000000000    0.5000000000000000 Li
   0.4005040000000000    0.5000000000000000    0.5000000000000000 Ga
   0.9014940000000000    0.0000000000000000    0.0000000000000000 Ga
   0.6018670000000000    0.0000000000000000    0.5000000000000000 Ga
   0.0989160000000000    0.5000000000000000    0.0000000000000000 Ga
   0.0894430000000000    0.6954430000000000    0.2924770000000000 Si
   0.5924430000000001    0.1943580000000000    0.7907060000000000 Si
   0.0894430000000000    0.3045570000000000    0.7075230000000000 Si
   0.5924430000000001    0.8056420000000000    0.2092940000000000 Si
   0.9090190000000000    0.8022600000000000    0.7067430000000000 Si
   0.4093010000000000    0.3069650000000000    0.2094840000000000 Si
   0.9090190000000000    0.1977400000000000    0.2932570000000000 Si
   0.4093010000000000    0.6930350000000000    0.7905160000000000 Si
   0.2585650000000000    0.6946860000000000    0.3589960000000000 O
   0.7590620000000000    0.1934080000000000    0.8602330000000000 O
   0.2585650000000000    0.3053140000000000    0.6410040000000000 O
   0.7590620000000000    0.8065920000000000    0.1397670000000000 O
   0.7423950000000000    0.7947390000000000    0.6363080000000000 O
   0.2418720000000000    0.3060100000000000    0.1410410000000000 O
   0.7423950000000000    0.2052610000000000    0.3636920000000000 O
   0.2418720000000000    0.6939900000000000    0.8589590000000000 O
   0.0781030000000000    0.7717160000000000    0.1129540000000000 O
   0.5851740000000000    0.2757280000000000    0.6111340000000000 O
   0.0781030000000000    0.2282840000000000    0.8870460000000000 O
   0.5851740000000000    0.7242720000000000    0.3888660000000000 O
   0.9209120000000000    0.7269160000000000    0.8861120000000000 O
   0.4217910000000000    0.2281220000000000    0.3886790000000000 O
   0.9209120000000000    0.2730840000000000    0.1138880000000000 O
   0.4217910000000000    0.7718780000000000    0.6113210000000000 O
   0.0057370000000000    0.4152150000000000    0.3554180000000000 O
   0.5084020000000000    0.9120260000000000    0.8500970000000000 O
   0.0057370000000000    0.5847850000000000    0.6445820000000000 O
   0.5084020000000000    0.0879740000000000    0.1499030000000000 O
   0.9920590000000000    0.0849660000000000    0.6471610000000000 O
   0.4926100000000000    0.5892980000000000    0.1482180000000000 O
   0.9920590000000000    0.9150340000000000    0.3528390000000000 O
   0.4926100000000000    0.4107020000000000    0.8517820000000000 O
