Li12 Dy4 N24 O72
1.0
   0.0000000000000000    7.6352254400000001    0.0000000000000000
   7.5493221799999999    0.0000000000000000   -2.2830213399999999
  -7.5544170099999999    0.0000000000000000  -23.0369577499999991
Li Dy N O
12 4 24 72
direct
   0.8158646700000000    0.7068432500000000    0.6341720600000000 Li
   0.1841353300000000    0.2931567500000000    0.3658279400000000 Li
   0.3158646700000000    0.7931567500000000    0.8658279400000000 Li
   0.6841353300000000    0.2068432500000000    0.1341720600000000 Li
   0.5575751000000000    0.9994764800000000    0.7453421400000000 Li
   0.4424249000000000    0.0005235200000000    0.2546578600000000 Li
   0.0575751000000000    0.5005235200000000    0.7546578600000000 Li
   0.9424249000000000    0.4994764800000000    0.2453421400000000 Li
   0.2897770400000000    0.7422637500000000    0.5258548300000000 Li
   0.7102229600000000    0.2577362500000000    0.4741451700000000 Li
   0.7897770400000000    0.7577362500000000    0.9741451700000000 Li
   0.2102229600000000    0.2422637500000000    0.0258548300000000 Li
   0.3057600100000000    0.2427997500000000    0.6096306400000000 Dy
   0.6942399900000000    0.7572002500000000    0.3903693600000000 Dy
   0.8057600100000000    0.2572002500000000    0.8903693600000000 Dy
   0.1942399900000000    0.7427997500000000    0.1096306400000000 Dy
   0.7982935100000000    0.7354044900000000    0.7352244999999999 N
   0.2017064900000000    0.2645955100000000    0.2647755000000000 N
   0.2982935100000000    0.7645955100000000    0.7647755000000001 N
   0.7017064900000000    0.2354044900000000    0.2352245000000000 N
   0.3020676100000000    0.2609665200000000    0.7302997400000000 N
   0.6979323900000000    0.7390334800000000    0.2697002600000000 N
   0.8020676100000000    0.2390334800000000    0.7697002600000000 N
   0.1979323900000000    0.7609665200000000    0.2302997400000000 N
   0.4919344800000000    0.1451539700000000    0.9461238800000000 N
   0.5080655200000000    0.8548460300000000    0.0538761200000000 N
   0.9919344800000000    0.3548460300000000    0.5538761200000000 N
   0.0080655200000000    0.6451539700000000    0.4461238800000000 N
   0.1291070600000000    0.4009393400000000    0.9361642300000000 N
   0.8708929399999999    0.5990606600000000    0.0638357700000000 N
   0.6291070600000001    0.0990606600000000    0.5638357700000000 N
   0.3708929400000000    0.9009393400000000    0.4361642300000000 N
   0.1138963800000000    0.9242575800000000    0.6065136700000000 N
   0.8861036200000000    0.0757424200000000    0.3934863300000000 N
   0.6138963800000000    0.5757424200000000    0.8934863300000000 N
   0.3861036200000000    0.4242575800000000    0.1065136700000000 N
   0.0079239600000000    0.9450358300000000    0.9026362900000000 N
   0.9920760400000000    0.0549641700000000    0.0973637100000000 N
   0.5079239600000000    0.5549641700000000    0.5973637100000000 N
   0.4920760400000000    0.4450358300000000    0.4026362900000000 N
   0.3971578300000000    0.1543626700000000    0.7021555300000000 O
   0.6028421700000000    0.8456373300000000    0.2978444700000000 O
   0.8971578300000000    0.3456373300000000    0.7978444700000000 O
   0.1028421700000000    0.6543626700000000    0.2021555300000000 O
   0.5233261700000000    0.0916610800000000    0.8970884700000000 O
   0.4766738300000000    0.9083389200000000    0.1029115300000000 O
   0.0233261700000000    0.4083389200000000    0.6029115300000000 O
   0.9766738300000000    0.5916610800000000    0.3970884700000000 O
   0.6053674800000000    0.2455018200000000    0.9683498100000000 O
   0.3946325200000000    0.7544981800000000    0.0316501900000000 O
   0.1053674800000000    0.2544981800000000    0.5316501900000000 O
   0.8946325200000000    0.7455018200000000    0.4683498100000000 O
   0.3003052900000000    0.2687955400000000    0.7805964399999999 O
   0.6996947100000001    0.7312044599999999    0.2194035600000000 O
   0.8003052899999999    0.2312044600000000    0.7194035600000001 O
   0.1996947100000000    0.7687955400000001    0.2805964400000000 O
   0.2641484200000000    0.4573265800000000    0.9575720599999999 O
   0.7358515799999999    0.5426734200000000    0.0424279400000000 O
   0.7641484200000001    0.0426734200000000    0.5424279400000001 O
   0.2358515800000000    0.9573265800000000    0.4575720600000000 O
   0.0496086000000000    0.0552394100000000    0.8674936700000000 O
   0.9503914000000000    0.9447605900000000    0.1325063300000000 O
   0.5496086000000000    0.4447605900000000    0.6325063300000000 O
   0.4503914000000000    0.5552394100000000    0.3674936700000000 O
   0.3570588600000000    0.1016157100000000    0.9711100400000000 O
   0.6429411400000000    0.8983842900000000    0.0288899600000000 O
   0.8570588600000000    0.3983842900000000    0.5288899600000000 O
   0.1429411400000000    0.6016157100000000    0.4711100400000000 O
   0.2963832400000000    0.7546236500000000    0.7137183800000000 O
   0.7036167600000000    0.2453763500000000    0.2862816200000000 O
   0.7963832400000000    0.7453763500000000    0.7862816200000000 O
   0.2036167600000000    0.2546236500000000    0.2137183800000000 O
   0.6364930600000001    0.4706965300000000    0.4293327100000000 O
   0.3635069400000000    0.5293034700000000    0.5706672900000000 O
   0.1364930600000000    0.0293034700000000    0.0706672900000000 O
   0.8635069399999999    0.9706965300000000    0.9293327100000000 O
   0.0324261800000000    0.7895918300000000    0.5992159900000000 O
   0.9675738200000000    0.2104081700000000    0.4007840100000000 O
   0.5324261800000000    0.7104081700000000    0.9007840100000000 O
   0.4675738200000000    0.2895918300000000    0.0992159900000000 O
   0.0235060200000000    0.3046022500000000    0.9647504500000000 O
   0.9764939800000000    0.6953977500000000    0.0352495500000000 O
   0.5235060200000000    0.1953977500000000    0.5352495500000000 O
   0.4764939800000000    0.8046022500000000    0.4647504500000000 O
   0.0830480300000000    0.4277258200000000    0.8871118099999999 O
   0.9169519699999999    0.5722741800000000    0.1128881900000000 O
   0.5830480300000001    0.0722741800000000    0.6128881900000001 O
   0.4169519700000000    0.9277258200000000    0.3871118100000000 O
   0.2080891300000000    0.3599600000000000    0.7002549000000000 O
   0.7919108700000000    0.6400400000000001    0.2997451000000000 O
   0.7080891300000000    0.1400400000000000    0.7997451000000000 O
   0.2919108700000000    0.8599599999999999    0.2002549000000000 O
   0.5991572100000000    0.6812558399999999    0.5880311100000000 O
   0.4008427900000000    0.3187441600000000    0.4119688900000000 O
   0.0991572100000000    0.8187441600000001    0.9119688900000000 O
   0.9008427900000000    0.1812558400000000    0.0880311100000000 O
   0.0631365900000000    0.0457395200000000    0.6375804000000000 O
   0.9368634100000000    0.9542604800000000    0.3624196000000000 O
   0.5631365900000000    0.4542604800000000    0.8624196000000000 O
   0.4368634100000000    0.5457395200000000    0.1375804000000000 O
   0.2604595500000000    0.9454486000000000    0.5807098900000000 O
   0.7395404500000000    0.0545514000000000    0.4192901100000000 O
   0.7604595500000000    0.5545514000000000    0.9192901100000000 O
   0.2395404500000000    0.4454486000000000    0.0807098900000000 O
   0.3912904300000000    0.8757408900000000    0.7911319000000000 O
   0.6087095700000000    0.1242591100000000    0.2088681000000000 O
   0.8912904300000000    0.6242591100000000    0.7088681000000000 O
   0.1087095700000000    0.3757408900000000    0.2911319000000000 O
   0.7085921300000000    0.8345099700000000    0.7049618500000000 O
   0.2914078700000000    0.1654900300000000    0.2950381500000000 O
   0.2085921300000000    0.6654900300000000    0.7950381500000000 O
   0.7914078700000000    0.3345099700000000    0.2049618500000000 O
