Li1 Mg30 B1 O32
1.0
   8.5410930000000000    0.0000000000000000    0.0000000000000000
   0.0000000000000000    8.5410930000000000    0.0000000000000000
   0.0000000000000000    0.0000000000000000    8.4056180000000005
Li Mg B O
1 30 1 32
direct
   0.0000000000000000    0.0000000000000000    0.0000000000000000 Li
   0.5000000000000000    0.0000000000000000    0.0000000000000000 Mg
   0.5000000000000000    0.0000000000000000    0.5000000000000000 Mg
   0.0000000000000000    0.5000000000000000    0.0000000000000000 Mg
   0.0000000000000000    0.5000000000000000    0.5000000000000000 Mg
   0.5000000000000000    0.5000000000000000    0.0000000000000000 Mg
   0.5000000000000000    0.5000000000000000    0.5000000000000000 Mg
   0.2545350000000000    0.0000000000000000    0.2538440000000000 Mg
   0.2545350000000000    0.0000000000000000    0.7461560000000000 Mg
   0.7454650000000000    0.0000000000000000    0.2538440000000000 Mg
   0.7454650000000000    0.0000000000000000    0.7461560000000000 Mg
   0.2503470000000000    0.5000000000000000    0.2494860000000000 Mg
   0.2503470000000000    0.5000000000000000    0.7505140000000000 Mg
   0.7496530000000000    0.5000000000000000    0.2494860000000000 Mg
   0.7496530000000000    0.5000000000000000    0.7505140000000000 Mg
   0.0000000000000000    0.2545350000000000    0.2538440000000000 Mg
   0.0000000000000000    0.2545350000000000    0.7461560000000000 Mg
   0.5000000000000000    0.2503470000000000    0.2494860000000000 Mg
   0.5000000000000000    0.2503470000000000    0.7505140000000000 Mg
   0.0000000000000000    0.7454650000000000    0.2538440000000000 Mg
   0.0000000000000000    0.7454650000000000    0.7461560000000000 Mg
   0.5000000000000000    0.7496530000000000    0.2494860000000000 Mg
   0.5000000000000000    0.7496530000000000    0.7505140000000000 Mg
   0.2456550000000000    0.2456550000000000    0.0000000000000000 Mg
   0.2484750000000000    0.2484750000000000    0.5000000000000000 Mg
   0.7543450000000000    0.2456550000000000    0.0000000000000000 Mg
   0.7515250000000000    0.2484750000000000    0.5000000000000000 Mg
   0.2456550000000000    0.7543450000000000    0.0000000000000000 Mg
   0.2484750000000000    0.7515250000000000    0.5000000000000000 Mg
   0.7543450000000000    0.7543450000000000    0.0000000000000000 Mg
   0.7515250000000000    0.7515250000000000    0.5000000000000000 Mg
   0.0000000000000000    0.0000000000000000    0.5000000000000000 B
   0.0000000000000000    0.2460370000000000    0.0000000000000000 O
   0.0000000000000000    0.2600730000000000    0.5000000000000000 O
   0.5000000000000000    0.2496610000000000    0.0000000000000000 O
   0.5000000000000000    0.2513860000000000    0.5000000000000000 O
   0.0000000000000000    0.7539630000000000    0.0000000000000000 O
   0.0000000000000000    0.7399270000000000    0.5000000000000000 O
   0.5000000000000000    0.7503390000000000    0.0000000000000000 O
   0.5000000000000000    0.7486140000000000    0.5000000000000000 O
   0.2474630000000000    0.2474630000000000    0.2501020000000000 O
   0.2474630000000000    0.2474630000000000    0.7498980000000000 O
   0.7525370000000000    0.2474630000000000    0.2501020000000000 O
   0.7525370000000000    0.2474630000000000    0.7498980000000000 O
   0.2474630000000000    0.7525370000000000    0.2501020000000000 O
   0.2474630000000000    0.7525370000000000    0.7498980000000000 O
   0.7525370000000000    0.7525370000000000    0.2501020000000000 O
   0.7525370000000000    0.7525370000000000    0.7498980000000000 O
   0.0000000000000000    0.0000000000000000    0.3334070000000000 O
   0.0000000000000000    0.0000000000000000    0.6665930000000000 O
   0.5000000000000000    0.0000000000000000    0.2481280000000000 O
   0.5000000000000000    0.0000000000000000    0.7518720000000000 O
   0.0000000000000000    0.5000000000000000    0.2481280000000000 O
   0.0000000000000000    0.5000000000000000    0.7518720000000000 O
   0.5000000000000000    0.5000000000000000    0.2493480000000000 O
   0.5000000000000000    0.5000000000000000    0.7506520000000000 O
   0.2460370000000000    0.0000000000000000    0.0000000000000000 O
   0.2600730000000000    0.0000000000000000    0.5000000000000000 O
   0.7539630000000000    0.0000000000000000    0.0000000000000000 O
   0.7399270000000000    0.0000000000000000    0.5000000000000000 O
   0.2496610000000000    0.5000000000000000    0.0000000000000000 O
   0.2513860000000000    0.5000000000000000    0.5000000000000000 O
   0.7503390000000000    0.5000000000000000    0.0000000000000000 O
   0.7486140000000000    0.5000000000000000    0.5000000000000000 O
