Li2 Nd2 P8 O24
1.0
   3.5880310000000000    8.3483129999999992    0.0000000000000000
  -3.5880310000000000    8.3483129999999992    0.0000000000000000
   0.0000000000000000    5.8868470000000004    7.9796310000000004
Li Nd P O
2 2 8 24
direct
   0.7032650000000000    0.2967350000000000    0.7500000000000000 Li
   0.2967350000000000    0.7032650000000000    0.2500000000000000 Li
   0.2019240000000000    0.7980760000000000    0.7500000000000000 Nd
   0.7980750000000000    0.2019240000000000    0.2500000000000000 Nd
   0.9919519999999999    0.3031850000000000    0.8019360000000000 P
   0.6968150000000000    0.0080480000000000    0.6980640000000000 P
   0.0080480000000000    0.6968150000000000    0.1980640000000000 P
   0.3031850000000000    0.9919519999999999    0.3019360000000000 P
   0.5839500000000000    0.6929400000000000    0.8859740000000000 P
   0.3070600000000000    0.4160500000000000    0.6140260000000000 P
   0.4160500000000000    0.3070600000000000    0.1140260000000000 P
   0.6929400000000000    0.5839500000000000    0.3859740000000000 P
   0.7802970000000000    0.5369640000000000    0.7695320000000000 O
   0.4630360000000000    0.2197030000000000    0.7304680000000000 O
   0.2197030000000000    0.4630360000000000    0.2304680000000000 O
   0.5369640000000000    0.7802970000000000    0.2695320000000000 O
   0.6598610000000000    0.8294410000000000    0.8521940000000000 O
   0.1705590000000000    0.3401390000000000    0.6478060000000000 O
   0.3401390000000000    0.1705590000000000    0.1478060000000000 O
   0.8294410000000000    0.6598610000000000    0.3521940000000000 O
   0.5735810000000000    0.5617180000000001    0.5699200000000000 O
   0.4382820000000000    0.4264190000000000    0.9300800000000000 O
   0.4264190000000000    0.4382820000000000    0.4300800000000000 O
   0.5617180000000001    0.5735810000000000    0.0699200000000000 O
   0.8273870000000000    0.3990140000000000    0.3199820000000000 O
   0.6009860000000000    0.1726130000000000    0.1800180000000000 O
   0.1726130000000000    0.6009860000000000    0.6800180000000000 O
   0.3990140000000000    0.8273870000000000    0.8199820000000000 O
   0.2408640000000000    0.0139160000000000    0.4674160000000000 O
   0.9860840000000000    0.7591360000000000    0.0325840000000000 O
   0.7591360000000000    0.9860840000000000    0.5325839999999999 O
   0.0139160000000000    0.2408640000000000    0.9674160000000001 O
   0.1689440000000000    0.9806180000000000    0.2682600000000000 O
   0.0193820000000000    0.8310560000000000    0.2317400000000000 O
   0.8310560000000000    0.0193820000000000    0.7317399999999999 O
   0.9806180000000000    0.1689440000000000    0.7682600000000001 O
