ALGO = Fast
EDIFF = 0.00045000000000000004
ENCUT = 520
IBRION = 2
ISIF = 3
ISMEAR = -5
ISPIN = 2
LASPH = True
LMAXMIX = 6
LORBIT = 11
LREAL = Auto
LWAVE = False
MAGMOM = 1*0.015 1*0.153 1*2.487 1*2.52 1*-0.049 1*-0.05 1*0.003 2*-0.062
NELM = 100
NSW = 99
PREC = Accurate
SIGMA = 0.05
