Rb2 Li4 U1 O6
1.0
   0.0000000000000000    0.0000000000000000   -5.7621149999999997
  -3.0798040000000002   -5.3343769999999999    0.0000000000000000
  -3.0798040000000002    5.3343769999999999    0.0000000000000000
Rb Li U O
2 4 1 6
direct
   0.5506700000000000    0.6666670000000000    0.3333330000000000 Rb
   0.4493300000000000    0.3333330000000000    0.6666670000000000 Rb
   0.0000000000000000    0.5000000000000000    0.5000000000000000 Li
   0.0000000000000000    0.0000000000000000    0.5000000000000000 Li
   0.0000000000000000    0.5000000000000000    0.0000000000000000 Li
   0.5000000000000000    0.0000000000000000    0.0000000000000000 Li
   0.0000000000000000    0.0000000000000000    0.0000000000000000 U
   0.7985650000000000    0.1629040000000000    0.3258080000000000 O
   0.2014350000000000    0.8370960000000000    0.6741920000000000 O
   0.7985650000000000    0.1629040000000000    0.8370960000000000 O
   0.2014350000000000    0.8370960000000000    0.1629040000000000 O
   0.7985650000000000    0.6741920000000000    0.8370960000000000 O
   0.2014350000000000    0.3258080000000000    0.1629040000000000 O
