Li3 Bi1 P2 O8
1.0
   2.8708030000000000    4.3444520000000004    0.0000000000000000
  -2.8708030000000000    4.3444520000000004    0.0000000000000000
   0.0000000000000000    0.2403850000000000    6.3765090000000004
Li Bi P O
3 1 2 8
direct
   0.6593470000000000    0.6593470000000000    0.2047940000000000 Li
   0.0000000000000000    0.0000000000000000    0.0000000000000000 Li
   0.3406540000000000    0.3406530000000000    0.7952060000000000 Li
   0.0000000000000000    0.0000000000000000    0.5000000000000000 Bi
   0.6436670000000000    0.6436670000000000    0.7447980000000000 P
   0.3563330000000000    0.3563330000000000    0.2552020000000000 P
   0.2361770000000000    0.2361770000000000    0.0869920000000000 O
   0.2771140000000000    0.2771140000000000    0.4815710000000000 O
   0.3162910000000000    0.7480630000000000    0.7666440000000000 O
   0.7480630000000000    0.3162910000000000    0.7666440000000000 O
   0.2519370000000000    0.6837090000000000    0.2333560000000000 O
   0.6837090000000000    0.2519370000000000    0.2333560000000000 O
   0.7228860000000000    0.7228860000000000    0.5184290000000000 O
   0.7638230000000000    0.7638230000000000    0.9130080000000000 O
