pymatgen with grid density = 1445 / number of atoms
0
Gamma
3 2 2
