Li4 B24 O36 F4
1.0
   7.8826999999999998    0.0000000000000000    0.0000000000000000
   0.0000000000000000    8.6513700000000000    0.0000000000000000
   0.0000000000000000    0.0000000000000000   10.9580280000000005
Li B O F
4 24 36 4
direct
   0.2375440000000000    0.3007680000000000    0.2264660000000000 Li
   0.7624560000000000    0.6992320000000000    0.7264659999999999 Li
   0.7375440000000000    0.1992320000000000    0.2264660000000000 Li
   0.2624560000000000    0.8007680000000000    0.7264659999999999 Li
   0.8716429999999999    0.3974120000000000    0.6541310000000000 B
   0.0581400000000000    0.3484490000000000    0.4869530000000000 B
   0.5943560000000000    0.9129200000000000    0.6029930000000000 B
   0.1283570000000000    0.6025880000000000    0.1541310000000000 B
   0.3630260000000000    0.6064880000000000    0.3130870000000000 B
   0.9418600000000000    0.6515510000000000    0.9869530000000000 B
   0.0466550000000000    0.8418679999999999    0.4831360000000000 B
   0.5466550000000000    0.6581320000000001    0.4831360000000000 B
   0.6369740000000000    0.3935120000000000    0.8130870000000000 B
   0.5385910000000000    0.4040510000000000    0.3943860000000000 B
   0.9056440000000000    0.4129200000000000    0.1029930000000000 B
   0.5581400000000000    0.1515510000000000    0.4869530000000000 B
   0.3716430000000000    0.1025880000000000    0.6541310000000000 B
   0.4418600000000000    0.8484490000000000    0.9869530000000000 B
   0.9533450000000000    0.1581320000000000    0.9831360000000000 B
   0.0943560000000000    0.5870800000000000    0.6029930000000000 B
   0.1369740000000000    0.1064880000000000    0.8130870000000000 B
   0.4533450000000000    0.3418680000000000    0.9831360000000000 B
   0.6283570000000001    0.8974120000000000    0.1541310000000000 B
   0.4056440000000000    0.0870800000000000    0.1029930000000000 B
   0.0385910000000000    0.0959490000000000    0.3943860000000000 B
   0.8630260000000000    0.8935120000000000    0.3130870000000000 B
   0.9614090000000000    0.9040510000000000    0.8943860000000000 B
   0.4614090000000000    0.5959490000000000    0.8943860000000000 B
   0.7498020000000000    0.3383170000000000    0.7306760000000000 O
   0.9323990000000000    0.7914860000000000    0.3955790000000000 O
   0.6327170000000000    0.0114040000000000    0.4982610000000000 O
   0.3950960000000000    0.4944980000000000    0.9775199999999999 O
   0.9354580000000000    0.2962020000000000    0.5680090000000000 O
   0.0683200000000000    0.4544520000000000    0.1630160000000000 O
   0.9316800000000000    0.5455480000000000    0.6630160000000000 O
   0.5676010000000000    0.2914860000000000    0.8955790000000000 O
   0.4323990000000000    0.7085140000000000    0.3955790000000000 O
   0.1049040000000000    0.9944980000000000    0.4775200000000000 O
   0.8978780000000000    0.2475020000000000    0.0755420000000000 O
   0.5645420000000000    0.7962020000000000    0.0680090000000000 O
   0.8950960000000000    0.0055020000000000    0.9775199999999999 O
   0.6049040000000000    0.5055020000000000    0.4775200000000000 O
   0.7501980000000000    0.8383170000000000    0.2306760000000000 O
   0.0952440000000000    0.2482170000000000    0.3905320000000000 O
   0.4047560000000000    0.7482170000000000    0.8905320000000000 O
   0.8672830000000000    0.5114040000000000    0.9982610000000000 O
   0.4354580000000000    0.2037980000000000    0.5680090000000000 O
   0.0676010000000000    0.2085140000000000    0.8955790000000000 O
   0.0645420000000000    0.7037980000000000    0.0680090000000000 O
   0.5952440000000000    0.2517830000000000    0.3905320000000000 O
   0.9149389999999999    0.0489830000000000    0.3115690000000000 O
   0.0850610000000000    0.9510170000000000    0.8115690000000000 O
   0.4149390000000000    0.4510170000000000    0.3115690000000000 O
   0.2498020000000000    0.1616830000000000    0.7306760000000000 O
   0.5850610000000001    0.5489830000000000    0.8115690000000000 O
   0.5683200000000000    0.0455480000000000    0.1630160000000000 O
   0.1021220000000000    0.7524980000000000    0.5755420000000000 O
   0.3978780000000000    0.2524980000000000    0.0755420000000000 O
   0.6021220000000000    0.7475020000000000    0.5755420000000000 O
   0.9047560000000000    0.7517830000000000    0.8905320000000000 O
   0.1327170000000000    0.4885960000000000    0.4982610000000000 O
   0.4316800000000000    0.9544520000000000    0.6630160000000000 O
   0.2501980000000000    0.6616830000000000    0.2306760000000000 O
   0.3672830000000000    0.9885960000000000    0.9982610000000000 O
   0.7284350000000001    0.9281460000000000    0.6948430000000000 F
   0.7715649999999999    0.4281460000000000    0.1948430000000000 F
   0.2284350000000000    0.5718540000000000    0.6948430000000000 F
   0.2715650000000000    0.0718540000000000    0.1948430000000000 F
