Li4 Nd24 B12 O56
1.0
  16.0982939999999992    0.0000000000000000    0.0000000000000000
   0.0000000000000000    8.7119230000000005    0.0000000000000000
   0.0000000000000000    8.3202239999999996    9.2430160000000008
Li Nd B O
4 24 12 56
direct
   0.6036480000000000    0.8807290000000000    0.4401600000000000 Li
   0.3963520000000000    0.1192710000000000    0.5598400000000000 Li
   0.1036480000000000    0.1192710000000000    0.0598400000000000 Li
   0.8963520000000000    0.8807290000000000    0.9401600000000000 Li
   0.8218170000000000    0.5534180000000000    0.3056790000000000 Nd
   0.1781830000000000    0.4465820000000000    0.6943210000000000 Nd
   0.3218170000000000    0.4465820000000000    0.1943210000000000 Nd
   0.6781830000000000    0.5534180000000000    0.8056790000000000 Nd
   0.3249760000000000    0.9855860000000000    0.0543580000000000 Nd
   0.6750240000000000    0.0144140000000000    0.9456420000000000 Nd
   0.8249760000000000    0.0144140000000000    0.4456420000000000 Nd
   0.1750240000000000    0.9855860000000000    0.5543580000000000 Nd
   0.3566190000000000    0.8481750000000000    0.4240560000000000 Nd
   0.6433810000000000    0.1518250000000000    0.5759440000000000 Nd
   0.8566190000000000    0.1518250000000000    0.0759440000000000 Nd
   0.1433810000000000    0.8481750000000000    0.9240560000000000 Nd
   0.5141880000000000    0.6645270000000000    0.2838600000000000 Nd
   0.4858120000000000    0.3354730000000000    0.7161400000000000 Nd
   0.0141880000000000    0.3354730000000000    0.2161400000000000 Nd
   0.9858120000000000    0.6645270000000000    0.7838600000000000 Nd
   0.5044990000000000    0.2363150000000000    0.0628570000000000 Nd
   0.4955010000000000    0.7636849999999999    0.9371429999999999 Nd
   0.0044990000000000    0.7636849999999999    0.4371430000000000 Nd
   0.9955010000000000    0.2363150000000000    0.5628570000000001 Nd
   0.6658210000000000    0.4110310000000000    0.1668510000000000 Nd
   0.3341790000000000    0.5889690000000000    0.8331490000000000 Nd
   0.1658210000000000    0.5889690000000000    0.3331490000000000 Nd
   0.8341790000000000    0.4110310000000000    0.6668510000000000 Nd
   0.8269980000000000    0.5442180000000000    0.0268210000000000 B
   0.1730020000000000    0.4557820000000000    0.9731790000000000 B
   0.3269980000000000    0.4557820000000000    0.4731790000000000 B
   0.6730020000000000    0.5442180000000000    0.5268210000000000 B
   0.9992390000000000    0.7926620000000000    0.1439950000000000 B
   0.0007610000000000    0.2073380000000000    0.8560050000000000 B
   0.4992390000000000    0.2073380000000000    0.3560050000000000 B
   0.5007610000000000    0.7926620000000000    0.6439950000000000 B
   0.6931430000000000    0.9581690000000000    0.2213670000000000 B
   0.3068570000000000    0.0418310000000000    0.7786330000000000 B
   0.1931430000000000    0.0418310000000000    0.2786330000000000 B
   0.8068570000000000    0.9581690000000000    0.7213670000000000 B
   0.7501350000000000    0.8856300000000000    0.1783420000000000 O
   0.2498650000000000    0.1143700000000000    0.8216580000000000 O
   0.2501350000000000    0.1143700000000000    0.3216580000000000 O
   0.7498650000000000    0.8856300000000000    0.6783420000000000 O
   0.4674700000000000    0.6986329999999999    0.5959230000000000 O
   0.5325299999999999    0.3013670000000000    0.4040770000000000 O
   0.9674700000000001    0.3013670000000000    0.9040770000000000 O
   0.0325300000000000    0.6986329999999999    0.0959230000000000 O
   0.4211050000000000    0.9338940000000000    0.2201830000000000 O
   0.5788950000000000    0.0661060000000000    0.7798170000000000 O
   0.9211050000000000    0.0661060000000000    0.2798170000000000 O
   0.0788950000000000    0.9338940000000000    0.7201830000000000 O
   0.9163740000000000    0.8517820000000000    0.1175010000000000 O
   0.0836260000000000    0.1482180000000000    0.8824990000000000 O
   0.4163740000000000    0.1482180000000000    0.3824990000000000 O
   0.5836260000000000    0.8517820000000000    0.6175010000000000 O
   0.9103090000000000    0.5247780000000000    0.0100470000000000 O
   0.0896910000000000    0.4752220000000000    0.9899530000000000 O
   0.4103090000000000    0.4752220000000000    0.4899530000000000 O
   0.5896910000000000    0.5247780000000000    0.5100470000000000 O
   0.7971150000000000    0.6408170000000000    0.0734530000000000 O
   0.2028850000000000    0.3591830000000000    0.9265470000000000 O
   0.2971150000000000    0.3591830000000000    0.4265470000000000 O
   0.7028850000000000    0.6408170000000000    0.5734530000000000 O
   0.4500700000000000    0.8251039999999999    0.7169650000000000 O
   0.5499300000000000    0.1748960000000000    0.2830350000000000 O
   0.9500700000000000    0.1748960000000000    0.7830350000000000 O
   0.0499300000000000    0.8251039999999999    0.2169650000000000 O
   0.5980540000000000    0.7024240000000000    0.1052270000000000 O
   0.4019460000000000    0.2975760000000000    0.8947730000000000 O
   0.0980540000000000    0.2975760000000000    0.3947730000000000 O
   0.9019460000000000    0.7024240000000000    0.6052270000000000 O
   0.9108630000000000    0.5269610000000000    0.4639400000000000 O
   0.0891370000000000    0.4730390000000000    0.5360600000000000 O
   0.4108630000000000    0.4730390000000000    0.0360600000000000 O
   0.5891370000000000    0.5269610000000000    0.9639400000000000 O
   0.4140990000000000    0.7151610000000000    0.1229560000000000 O
   0.5859010000000000    0.2848390000000000    0.8770440000000000 O
   0.9140990000000000    0.2848390000000000    0.3770440000000000 O
   0.0859010000000000    0.7151610000000000    0.6229560000000000 O
   0.2326840000000000    0.7242410000000000    0.1205660000000000 O
   0.7673160000000000    0.2757590000000000    0.8794340000000000 O
   0.7326840000000000    0.2757590000000000    0.3794340000000000 O
   0.2673160000000000    0.7242410000000000    0.6205660000000000 O
   0.2241990000000000    0.9486610000000000    0.2300810000000000 O
   0.7758010000000000    0.0513390000000000    0.7699190000000000 O
   0.7241990000000000    0.0513390000000000    0.2699190000000000 O
   0.2758010000000000    0.9486610000000000    0.7300810000000000 O
   0.6093670000000000    0.9481619999999999    0.2016600000000000 O
   0.3906330000000000    0.0518380000000000    0.7983400000000000 O
   0.1093670000000000    0.0518380000000000    0.2983400000000000 O
   0.8906330000000000    0.9481619999999999    0.7016600000000000 O
   0.7688320000000000    0.4494730000000000    0.0040500000000000 O
   0.2311680000000000    0.5505270000000000    0.9959500000000000 O
   0.2688320000000000    0.5505270000000000    0.4959500000000000 O
   0.7311680000000000    0.4494730000000000    0.5040500000000000 O
