ALGO = Fast
EDIFF = 0.005
ENCUT = 520
IBRION = 2
ISIF = 3
ISMEAR = -5
ISPIN = 2
LASPH = True
LORBIT = 11
LREAL = Auto
LWAVE = False
MAGMOM = 3*0.0 2*0.002 6*0.0 1*0.052 2*0.0 1*0.052 1*0.0 1*0.002 1*0.011 1*0.002 4*0.0 1*0.226 1*0.023 1*0.006 6*0.0 1*0.006 1*0.023 1*0.226 6*0.0 1*0.005 2*0.0 1*0.004 1*0.0 1*0.065 1*0.002 2*0.0 1*0.066 3*0.0 1*0.005 3*0.0 1*0.023 1*0.0 1*0.003 1*0.0 1*0.004 1*0.001 1*0.033 1*0.001 1*0.0 1*0.003 3*0.0 1*0.005 2*0.0 1*0.066 2*0.0 1*0.033 1*0.002 1*0.065 1*0.0 2*0.004 2*0.0 1*0.005 1*0.0 1*0.023 2*0.0 1*0.007 6*0.0 1*0.004 1*0.007 1*0.004
NELM = 100
NSW = 99
PREC = Accurate
SIGMA = 0.05
