Li6 Ga6 Si6 O24
1.0
   5.0344810000000004   -6.9145349999999999    0.0000000000000000
   5.0344810000000004    6.9145349999999999    0.0000000000000000
  -4.4621880000000003    0.0000000000000000    7.2969640000000000
Li Ga Si O
6 6 6 24
direct
   0.7895840000000000    0.5664060000000000    0.3912010000000000 Li
   0.2763090000000000    0.8738770000000000    0.1064630000000000 Li
   0.8738770000000000    0.1064630000000000    0.2763090000000000 Li
   0.1064630000000000    0.2763090000000000    0.8738770000000000 Li
   0.5664060000000000    0.3912010000000000    0.7895840000000000 Li
   0.3912010000000000    0.7895840000000000    0.5664060000000000 Li
   0.7621869999999999    0.9469130000000000    0.5422709999999999 Ga
   0.9469130000000000    0.5422709999999999    0.7621869999999999 Ga
   0.5422709999999999    0.7621869999999999    0.9469130000000000 Ga
   0.2305800000000000    0.0553480000000000    0.4653630000000000 Ga
   0.0553480000000000    0.4653630000000000    0.2305800000000000 Ga
   0.4653630000000000    0.2305800000000000    0.0553480000000000 Ga
   0.7184950000000000    0.1241610000000000    0.9053970000000000 Si
   0.1241610000000000    0.9053970000000000    0.7184950000000000 Si
   0.9053970000000000    0.7184950000000000    0.1241610000000000 Si
   0.4334130000000000    0.6120230000000000    0.2041990000000000 Si
   0.6120230000000000    0.2041990000000000    0.4334130000000000 Si
   0.2041990000000000    0.4334130000000000    0.6120230000000000 Si
   0.2952570000000000    0.6207990000000000    0.3015110000000000 O
   0.6428840000000000    0.7027030000000000    0.3695500000000000 O
   0.3695500000000000    0.6428840000000000    0.7027030000000000 O
   0.9968470000000000    0.9377320000000000    0.2689530000000000 O
   0.9377320000000000    0.2689530000000000    0.9968470000000000 O
   0.2689530000000000    0.9968470000000000    0.9377320000000000 O
   0.0061230000000000    0.0234230000000000    0.6892670000000000 O
   0.0234230000000000    0.6892670000000000    0.0061230000000000 O
   0.6892670000000000    0.0061230000000000    0.0234230000000000 O
   0.7027030000000000    0.3695500000000000    0.6428840000000000 O
   0.3015110000000000    0.2952570000000000    0.6207990000000000 O
   0.6207990000000000    0.3015110000000000    0.2952570000000000 O
   0.3983140000000000    0.0633440000000000    0.3677810000000000 O
   0.3677810000000000    0.3983140000000000    0.0633440000000000 O
   0.0633440000000000    0.3677810000000000    0.3983140000000000 O
   0.6466620000000000    0.9799410000000000    0.6926330000000001 O
   0.6926330000000001    0.6466620000000000    0.9799410000000000 O
   0.9799410000000000    0.6926330000000001    0.6466620000000000 O
   0.9177880000000000    0.5959900000000000    0.2394230000000000 O
   0.2394230000000000    0.9177880000000000    0.5959900000000000 O
   0.5959900000000000    0.2394230000000000    0.9177880000000000 O
   0.0901850000000000    0.4214790000000000    0.7356190000000000 O
   0.7356190000000000    0.0901850000000000    0.4214790000000000 O
   0.4214790000000000    0.7356190000000000    0.0901850000000000 O
