Li2 Sn1 P6 O18
1.0
   7.5907939999999998    0.0000000000000000    0.0000000000000000
  -3.2212890000000001    6.9434610000000001    0.0000000000000000
  -1.4996170000000000   -3.0962920000000000    6.8751699999999998
Li Sn P O
2 1 6 18
direct
   0.5162210000000000    0.9625220000000000    0.4233290000000000 Li
   0.7206720000000000    0.8666590000000000    0.1645700000000000 Li
   0.2420880000000000    0.0951780000000000    0.8310040000000000 Sn
   0.9649850000000000    0.2962090000000000    0.7324760000000000 P
   0.3168550000000000    0.6798850000000000    0.7900550000000000 P
   0.2258810000000000    0.2814010000000000    0.5052120000000000 P
   0.8153420000000000    0.7406990000000000    0.5147670000000000 P
   0.0065790000000000    0.6877380000000000    0.2236700000000000 P
   0.6700350000000000    0.3180920000000000    0.2317750000000000 P
   0.1036570000000000    0.2742290000000000    0.8920890000000000 O
   0.4716870000000000    0.7105780000000000    0.9609090000000000 O
   0.0799880000000000    0.5446660000000000    0.7772860000000000 O
   0.7416010000000000    0.2074280000000000    0.6968150000000000 O
   0.3493190000000000    0.2294320000000000    0.6504810000000000 O
   0.0018900000000000    0.2022370000000000    0.5322970000000000 O
   0.3337850000000000    0.8758750000000000    0.7607820000000000 O
   0.9337800000000001    0.8460410000000000    0.7381440000000000 O
   0.3192550000000000    0.5350040000000000    0.5908500000000000 O
   0.2035000000000000    0.1938590000000000    0.3009600000000000 O
   0.7045520000000000    0.4874960000000000    0.4394070000000000 O
   0.6399910000000000    0.1218250000000000    0.2515270000000000 O
   0.0098930000000000    0.7998550000000000    0.4444810000000000 O
   0.6678510000000000    0.8012960000000000    0.4322950000000000 O
   0.2265090000000000    0.7513410000000000    0.2492090000000000 O
   0.8818210000000000    0.4377140000000000    0.1987080000000000 O
   0.4923400000000000    0.2999920000000000    0.0750520000000000 O
   0.8668570000000000    0.7185180000000000    0.0874130000000000 O
