pymatgen with grid density = 1475 / number of atoms
0
Gamma
1 4 4
