Li8 Sb4 H12 O6 F20
1.0
  16.6760739999999998    0.0000000000000000    0.0000000000000000
   0.0000000000000000    5.6752469999999997    0.0000000000000000
   0.0000000000000000    0.0035090000000000    5.6845960000000000
Li Sb H O F
8 4 12 6 20
direct
   0.0003180000000000    0.7515670000000000    0.2477320000000000 Li
   0.4996820000000000    0.7515670000000000    0.2477320000000000 Li
   0.3887430000000000    0.7450329999999999    0.7489360000000000 Li
   0.1112570000000000    0.7450329999999999    0.7489360000000000 Li
   0.6112570000000001    0.2549670000000000    0.2510640000000000 Li
   0.8887429999999999    0.2549670000000000    0.2510640000000000 Li
   0.9996820000000000    0.2484330000000000    0.7522680000000000 Li
   0.5003180000000000    0.2484330000000000    0.7522680000000000 Li
   0.6288920000000000    0.7407490000000000    0.7403160000000000 Sb
   0.8711080000000000    0.7407490000000000    0.7403160000000000 Sb
   0.3711080000000000    0.2592510000000000    0.2596840000000000 Sb
   0.1288920000000000    0.2592510000000000    0.2596840000000000 Sb
   0.7962450000000000    0.8666600000000000    0.2209070000000000 H
   0.7037550000000000    0.8666600000000000    0.2209070000000000 H
   0.2963650000000000    0.7911510000000000    0.1449470000000000 H
   0.2036350000000000    0.7911510000000000    0.1449470000000000 H
   0.2500000000000000    0.7323400000000000    0.5432960000000000 H
   0.2500000000000000    0.5341170000000000    0.7383920000000000 H
   0.7500000000000000    0.4658830000000000    0.2616080000000000 H
   0.7500000000000000    0.2676600000000000    0.4567040000000000 H
   0.7963650000000000    0.2088490000000000    0.8550530000000000 H
   0.7036350000000000    0.2088490000000000    0.8550530000000000 H
   0.2962450000000000    0.1333400000000000    0.7790930000000000 H
   0.2037550000000000    0.1333400000000000    0.7790930000000000 H
   0.7500000000000000    0.7705379999999999    0.2687000000000000 O
   0.2500000000000000    0.7470210000000000    0.2428600000000000 O
   0.2500000000000000    0.7086470000000000    0.7157720000000000 O
   0.7500000000000000    0.2913530000000000    0.2842280000000000 O
   0.7500000000000000    0.2529790000000000    0.7571400000000000 O
   0.2500000000000000    0.2294620000000000    0.7313000000000000 O
   0.8671560000000000    0.0133110000000000    0.0039040000000000 F
   0.6328440000000000    0.0133110000000000    0.0039040000000000 F
   0.9016030000000000    0.9937080000000000    0.4850680000000000 F
   0.5983970000000000    0.9937080000000000    0.4850680000000000 F
   0.5128210000000000    0.8187070000000000    0.8065310000000000 F
   0.9871790000000000    0.8187070000000000    0.8065310000000000 F
   0.9216720000000000    0.4995580000000000    0.5022750000000000 F
   0.5783280000000000    0.4995580000000000    0.5022750000000000 F
   0.9066010000000000    0.4925240000000000    0.9975210000000000 F
   0.5933990000000000    0.4925240000000000    0.9975210000000000 F
   0.4066010000000000    0.5074760000000000    0.0024790000000000 F
   0.0933990000000000    0.5074760000000000    0.0024790000000000 F
   0.4216720000000000    0.5004420000000001    0.4977250000000000 F
   0.0783280000000000    0.5004420000000001    0.4977250000000000 F
   0.0128210000000000    0.1812930000000000    0.1934690000000000 F
   0.4871790000000000    0.1812930000000000    0.1934690000000000 F
   0.4016030000000000    0.0062920000000000    0.5149319999999999 F
   0.0983970000000000    0.0062920000000000    0.5149319999999999 F
   0.3671560000000000    0.9866890000000000    0.9960960000000000 F
   0.1328440000000000    0.9866890000000000    0.9960960000000000 F
