pymatgen with grid density = 1136 / number of atoms
0
Monkhorst
4 2 2
