pymatgen with grid density = 1393 / number of atoms
0
Gamma
3 4 2
