Li12 Bi4 B8 O24
1.0
   8.3966700000000003    0.0000000000000000    0.0000000000000000
   0.0000000000000000    6.3779440000000003    0.0000000000000000
   0.0000000000000000    5.2916610000000004   10.2182069999999996
Li Bi B O
12 4 8 24
direct
   0.7319369999999999    0.5597960000000000    0.8686800000000000 Li
   0.7950780000000000    0.0141260000000000    0.4275670000000000 Li
   0.5610560000000000    0.7058200000000000    0.6180620000000000 Li
   0.0610560000000000    0.2941800000000000    0.8819380000000000 Li
   0.2319370000000000    0.4402040000000000    0.6313200000000000 Li
   0.7049220000000000    0.0141260000000000    0.9275670000000000 Li
   0.2950780000000000    0.9858740000000000    0.0724330000000000 Li
   0.7680630000000001    0.5597960000000000    0.3686800000000000 Li
   0.9389440000000000    0.7058200000000000    0.1180620000000000 Li
   0.4389440000000000    0.2941800000000000    0.3819380000000000 Li
   0.2049220000000000    0.9858740000000000    0.5724330000000000 Li
   0.2680630000000000    0.4402040000000000    0.1313200000000000 Li
   0.6232770000000000    0.1009230000000000    0.1672850000000000 Bi
   0.1232770000000000    0.8990770000000000    0.3327150000000000 Bi
   0.8767230000000000    0.1009230000000000    0.6672850000000000 Bi
   0.3767230000000000    0.8990770000000000    0.8327150000000000 Bi
   0.9038790000000000    0.6274030000000000    0.6370810000000000 B
   0.9500830000000000    0.1976530000000000    0.1016660000000000 B
   0.4038790000000000    0.3725970000000000    0.8629190000000000 B
   0.4500830000000000    0.8023470000000000    0.3983340000000000 B
   0.5499170000000000    0.1976530000000000    0.6016660000000000 B
   0.5961210000000000    0.6274030000000000    0.1370810000000000 B
   0.0499170000000000    0.8023470000000000    0.8983340000000000 B
   0.0961210000000000    0.3725970000000000    0.3629190000000000 B
   0.7821540000000000    0.7135480000000000    0.6858280000000000 O
   0.4665960000000000    0.5987200000000000    0.7904470000000000 O
   0.9608920000000000    0.7738300000000000    0.5136890000000000 O
   0.8419710000000000    0.2782950000000000    0.9987480000000000 O
   0.8940580000000000    0.1379010000000000    0.2292490000000000 O
   0.4608920000000000    0.2261700000000000    0.9863110000000000 O
   0.1078120000000000    0.1546840000000000    0.0862550000000000 O
   0.6078120000000000    0.8453160000000000    0.4137450000000000 O
   0.3940580000000000    0.8620989999999999    0.2707510000000000 O
   0.3419710000000000    0.7217050000000000    0.5012520000000000 O
   0.9665960000000000    0.4012800000000000    0.7095530000000000 O
   0.2821540000000000    0.2864520000000000    0.8141720000000000 O
   0.7178460000000000    0.7135480000000000    0.1858280000000000 O
   0.0334040000000000    0.5987200000000000    0.2904470000000000 O
   0.6580290000000000    0.2782950000000000    0.4987480000000000 O
   0.6059420000000000    0.1379010000000000    0.7292490000000000 O
   0.3921880000000000    0.1546840000000000    0.5862550000000000 O
   0.8921880000000000    0.8453160000000000    0.9137450000000000 O
   0.5391080000000000    0.7738300000000000    0.0136890000000000 O
   0.1059420000000000    0.8620989999999999    0.7707510000000000 O
   0.1580290000000000    0.7217050000000000    0.0012520000000000 O
   0.0391080000000000    0.2261700000000000    0.4863110000000000 O
   0.5334040000000000    0.4012800000000000    0.2095530000000000 O
   0.2178460000000000    0.2864520000000000    0.3141720000000000 O
