ALGO = Fast
EDIFF = 0.0017000000000000001
ENCUT = 520
IBRION = 2
ISIF = 3
ISMEAR = -5
ISPIN = 2
LASPH = True
LMAXMIX = 6
LORBIT = 11
LREAL = Auto
LWAVE = False
MAGMOM = 2*-0.001 4*-0.0 2*6.46 2*6.369 6*-0.0 2*-0.013 2*-0.007 2*-0.019 2*-0.005 2*-0.009 2*-0.025 2*-0.197 2*-0.506 2*-0.005
NELM = 100
NSW = 99
PREC = Accurate
SIGMA = 0.05
