pymatgen with grid density = 1748 / number of atoms
0
Gamma
4 4 3
