Li4 Sn2 B4 O12
1.0
  -5.1330220000000004    0.0000000000000000    0.0000000000000000
   0.0692830000000000    6.7238509999999998    0.0000000000000000
  -0.0239990000000000   -2.5995640000000000   -7.7955259999999997
Li Sn B O
4 2 4 12
direct
   0.8178860000000000    0.0746870000000000    0.8981080000000000 Li
   0.6309310000000000    0.2149130000000000    0.5968920000000000 Li
   0.3690690000000000    0.7850870000000000    0.4031080000000000 Li
   0.1821140000000000    0.9253130000000001    0.1018920000000000 Li
   0.8789900000000000    0.4236810000000000    0.2513510000000000 Sn
   0.1210100000000000    0.5763190000000000    0.7486490000000000 Sn
   0.8560860000000000    0.8136180000000000    0.5503560000000000 B
   0.6715490000000000    0.6563210000000000    0.8864560000000000 B
   0.3284510000000000    0.3436790000000000    0.1135440000000000 B
   0.1439140000000000    0.1863820000000000    0.4496440000000000 B
   0.8977510000000000    0.2673550000000000    0.4207470000000000 O
   0.7554780000000000    0.4624750000000000    0.7783940000000000 O
   0.8756070000000000    0.7972010000000000    0.9472159999999999 O
   0.7280489999999999    0.6980200000000000    0.3958140000000000 O
   0.7446730000000000    0.9821700000000000    0.6579950000000000 O
   0.5888180000000000    0.2950800000000000    0.0818890000000000 O
   0.4111820000000000    0.7049200000000000    0.9181110000000000 O
   0.2553270000000000    0.0178300000000000    0.3420050000000000 O
   0.2719510000000000    0.3019800000000000    0.6041860000000000 O
   0.1243930000000000    0.2027990000000000    0.0527840000000000 O
   0.2445220000000000    0.5375250000000000    0.2216060000000000 O
   0.1022490000000000    0.7326450000000000    0.5792530000000000 O
