pymatgen with grid density = 795 / number of atoms
0
Gamma
1 1 1
