Li1 Er4 Be4 Si2 O14
1.0
   0.1258590000000000    0.1258590000000000    4.8636179999999998
   7.4654759999999998    0.1785620000000000    0.1922650000000000
   0.1785620000000000    7.4654759999999998    0.1922650000000000
Li Er Be Si O
1 4 4 2 14
direct
   0.5584280000000000    0.6645510000000000    0.1645510000000000 Li
   0.5412530000000000    0.1630090000000000    0.6630090000000000 Er
   0.5399190000000000    0.8886600000000000    0.3886600000000000 Er
   0.4751710000000000    0.6333750000000000    0.8103960000000000 Er
   0.4751710000000000    0.3103960000000000    0.1333750000000000 Er
   0.9678540000000000    0.6253870000000000    0.1253870000000000 Be
   0.9586080000000000    0.3620810000000000    0.8620810000000000 Be
   0.0441060000000000    0.1510940000000000    0.3691760000000000 Be
   0.0441060000000000    0.8691759999999999    0.6510940000000000 Be
   0.0096780000000000    0.9919910000000000    0.0090270000000000 Si
   0.0096780000000000    0.5090270000000000    0.4919910000000000 Si
   0.1781580000000000    0.0218760000000000    0.5218760000000000 O
   0.7926690000000000    0.4994900000000000    0.9994900000000000 O
   0.2715560000000000    0.5843830000000000    0.0843830000000000 O
   0.2868940000000000    0.3398270000000000    0.8398270000000000 O
   0.7173110000000000    0.1625700000000000    0.3600040000000000 O
   0.7173110000000000    0.8600040000000000    0.6625700000000000 O
   0.1986860000000000    0.0741220000000000    0.1638650000000000 O
   0.1987070000000000    0.9004770000000000    0.8451820000000000 O
   0.8105130000000000    0.1614310000000000    0.9239849999999999 O
   0.8105130000000000    0.4239850000000000    0.6614310000000000 O
   0.8106580000000000    0.8403200000000000    0.1018730000000000 O
   0.8106580000000000    0.6018730000000000    0.3403200000000000 O
   0.1987070000000000    0.3451820000000000    0.4004770000000000 O
   0.1986860000000000    0.6638650000000000    0.5741220000000000 O
