Li18 Ga6 P16 O58
1.0
   4.8905770000000004   -8.4707270000000001    0.0000000000000000
   4.8905770000000004    8.4707270000000001    0.0000000000000000
   0.0000000000000000    0.0000000000000000   13.7460140000000006
Li Ga P O
18 6 16 58
direct
   0.2350400000000000    0.8981800000000000    0.4365450000000000 Li
   0.8981800000000000    0.6631400000000000    0.5634550000000000 Li
   0.1018200000000000    0.7649600000000000    0.9365450000000000 Li
   0.7649600000000000    0.1018200000000000    0.5634550000000000 Li
   0.3333330000000000    0.6666670000000000    0.6197140000000000 Li
   0.7649600000000000    0.6631400000000000    0.0634550000000000 Li
   0.2350400000000000    0.3368600000000000    0.9365450000000000 Li
   0.3368600000000000    0.2350400000000000    0.5634550000000000 Li
   0.6666670000000000    0.3333330000000000    0.8802860000000000 Li
   0.3368600000000000    0.1018200000000000    0.0634550000000000 Li
   0.0000000000000000    0.0000000000000000    0.5000000000000000 Li
   0.8981800000000000    0.2350400000000000    0.0634550000000000 Li
   0.6666670000000000    0.3333330000000000    0.3802860000000000 Li
   0.6631400000000000    0.7649600000000000    0.4365450000000000 Li
   0.6631400000000000    0.8981800000000000    0.9365450000000000 Li
   0.1018200000000000    0.3368600000000000    0.4365450000000000 Li
   0.3333330000000000    0.6666670000000000    0.1197140000000000 Li
   0.0000000000000000    0.0000000000000000    0.0000000000000000 Li
   0.0000000000000000    0.5650920000000000    0.7500000000000000 Ga
   0.4349080000000000    0.4349080000000000    0.7500000000000000 Ga
   0.5650920000000000    0.0000000000000000    0.7500000000000000 Ga
   0.4349080000000000    0.0000000000000000    0.2500000000000000 Ga
   0.0000000000000000    0.4349080000000000    0.2500000000000000 Ga
   0.5650920000000000    0.5650920000000000    0.2500000000000000 Ga
   0.6666670000000000    0.3333330000000000    0.1253620000000000 P
   0.7735150000000000    0.6819340000000000    0.8436500000000000 P
   0.6819340000000000    0.7735150000000000    0.6563500000000000 P
   0.6666670000000000    0.3333330000000000    0.6253620000000000 P
   0.3180660000000000    0.0915810000000000    0.8436500000000000 P
   0.2264850000000000    0.9084190000000000    0.6563500000000000 P
   0.7735150000000000    0.0915810000000000    0.3436500000000000 P
   0.3333330000000000    0.6666670000000000    0.3746380000000000 P
   0.9084190000000000    0.2264850000000000    0.8436500000000000 P
   0.0915810000000000    0.3180660000000000    0.6563500000000000 P
   0.3333330000000000    0.6666670000000000    0.8746380000000000 P
   0.0915810000000000    0.7735150000000000    0.1563500000000000 P
   0.6819340000000000    0.9084190000000000    0.1563500000000000 P
   0.2264850000000000    0.3180660000000000    0.1563500000000000 P
   0.9084190000000000    0.6819340000000000    0.3436500000000000 P
   0.3180660000000000    0.2264850000000000    0.3436500000000000 P
   0.0000000000000000    0.7866280000000000    0.2500000000000000 O
   0.8126420000000000    0.3243320000000000    0.1635210000000000 O
   0.5116889999999999    0.1873580000000000    0.1635210000000000 O
   0.6266200000000000    0.1095690000000000    0.3328510000000000 O
   0.5116889999999999    0.3243320000000000    0.6635210000000000 O
   0.4883110000000000    0.8126420000000000    0.8364790000000000 O
   0.2268640000000000    0.9995270000000001    0.9332110000000000 O
   0.8904310000000000    0.5170510000000000    0.3328510000000000 O
   0.7866280000000000    0.7866280000000000    0.7500000000000000 O
   0.2547400000000000    0.3314960000000000    0.6566340000000001 O
   0.1095690000000000    0.6266200000000000    0.1671490000000000 O
   0.3314960000000000    0.2547400000000000    0.8433659999999999 O
   0.6756680000000000    0.1873580000000000    0.6635210000000000 O
   0.1873580000000000    0.6756680000000000    0.8364790000000000 O
   0.1873580000000000    0.5116889999999999    0.3364790000000000 O
   0.3733800000000000    0.8904310000000000    0.6671490000000000 O
   0.9232440000000000    0.2547400000000000    0.3433660000000000 O
   0.7866280000000000    0.0000000000000000    0.2500000000000000 O
   0.2273370000000000    0.0004730000000000    0.5667890000000000 O
   0.6666670000000000    0.3333330000000000    0.5151010000000000 O
   0.1095690000000000    0.4829490000000000    0.6671490000000000 O
   0.2133720000000000    0.0000000000000000    0.7500000000000000 O
   0.6756680000000000    0.4883110000000000    0.1635210000000000 O
   0.3314960000000000    0.0767560000000000    0.3433660000000000 O
   0.5170510000000000    0.8904310000000000    0.1671490000000000 O
   0.9995270000000001    0.2268640000000000    0.5667890000000000 O
   0.0000000000000000    0.2133720000000000    0.7500000000000000 O
   0.3333330000000000    0.6666670000000000    0.4848990000000000 O
   0.2273370000000000    0.2268640000000000    0.0667890000000000 O
   0.7731360000000000    0.0004730000000000    0.0667890000000000 O
   0.4883110000000000    0.6756680000000000    0.3364790000000000 O
   0.6266200000000000    0.5170510000000000    0.8328510000000000 O
   0.7726630000000000    0.9995270000000001    0.4332110000000000 O
   0.6685040000000000    0.7452600000000000    0.1566340000000000 O
   0.9995270000000001    0.7726630000000000    0.0667890000000000 O
   0.7726630000000000    0.7731360000000000    0.9332110000000000 O
   0.4829490000000000    0.1095690000000000    0.8328510000000000 O
   0.3243320000000000    0.5116889999999999    0.8364790000000000 O
   0.5170510000000000    0.6266200000000000    0.6671490000000000 O
   0.7452600000000000    0.6685040000000000    0.3433660000000000 O
   0.6685040000000000    0.9232440000000000    0.6566340000000001 O
   0.2547400000000000    0.9232440000000000    0.1566340000000000 O
   0.0004730000000000    0.7731360000000000    0.4332110000000000 O
   0.3243320000000000    0.8126420000000000    0.3364790000000000 O
   0.8126420000000000    0.4883110000000000    0.6635210000000000 O
   0.9232440000000000    0.6685040000000000    0.8433659999999999 O
   0.3733800000000000    0.4829490000000000    0.1671490000000000 O
   0.6666670000000000    0.3333330000000000    0.0151010000000000 O
   0.0767560000000000    0.3314960000000000    0.1566340000000000 O
   0.0767560000000000    0.7452600000000000    0.6566340000000001 O
   0.4829490000000000    0.3733800000000000    0.3328510000000000 O
   0.7731360000000000    0.7726630000000000    0.5667890000000000 O
   0.3333330000000000    0.6666670000000000    0.9848990000000000 O
   0.8904310000000000    0.3733800000000000    0.8328510000000000 O
   0.2268640000000000    0.2273370000000000    0.4332110000000000 O
   0.0004730000000000    0.2273370000000000    0.9332110000000000 O
   0.7452600000000000    0.0767560000000000    0.8433659999999999 O
   0.2133720000000000    0.2133720000000000    0.2500000000000000 O
