ALGO = Fast
EDIFF = 0.00045000000000000004
ENCUT = 520
IBRION = 2
ISIF = 3
ISMEAR = -5
ISPIN = 2
LASPH = True
LMAXMIX = 6
LORBIT = 11
LREAL = Auto
LWAVE = False
MAGMOM = 1*0.013 1*0.036 1*-0.021 1*0.011 1*0.005 1*0.362 1*0.019 1*0.428 1*0.008
NELM = 100
NSW = 99
PREC = Accurate
SIGMA = 0.05
