Li1 Pr2 Br2 O4
1.0
   0.0000000000000000   -4.3556730000000003    0.0000000000000000
  -5.0419489999999998    0.0000000000000000    2.6385209999999999
  -0.0016110000000000    0.0000000000000000   -7.5963209999999997
Li Pr Br O
1 2 2 4
direct
   0.7500000000000000    0.3001880000000000    0.9156970000000000 Li
   0.7500000000000000    0.1618130000000000    0.3742500000000000 Pr
   0.2500000000000000    0.8085760000000000    0.6138000000000000 Pr
   0.7500000000000000    0.7377140000000000    0.9255060000000001 Br
   0.2500000000000000    0.3051150000000000    0.0813580000000000 Br
   0.7500000000000000    0.6073950000000000    0.4604620000000000 O
   0.2500000000000000    0.2736250000000000    0.5426940000000000 O
   0.7500000000000000    0.0400850000000000    0.6427820000000000 O
   0.2500000000000000    0.9904890000000000    0.3786350000000000 O
