Li1 Lu2 Al2 O6
1.0
   3.3305769999999999   -0.0001160000000000    0.0001980000000000
  -1.6653880000000001    2.8843100000000002   -0.0002450000000000
  -0.0012010000000000    0.0004850000000000   14.1881079999999997
Li Lu Al O
1 2 2 6
direct
   0.6665410000000001    0.3334940000000000    0.1185750000000000 Li
   0.9994729999999999    0.0005780000000000    0.9416090000000000 Lu
   0.9993910000000000    0.0005910000000000    0.5291450000000000 Lu
   0.3326930000000000    0.6672480000000000    0.3227360000000000 Al
   0.6661150000000000    0.3339200000000000    0.7361830000000000 Al
   0.3328160000000000    0.6673000000000000    0.0240580000000000 O
   0.3326970000000000    0.6672820000000000    0.4542460000000000 O
   0.9993820000000000    0.0005580000000000    0.3183570000000000 O
   0.9994200000000000    0.0006190000000000    0.7373950000000000 O
   0.6661230000000000    0.3339400000000000    0.8678390000000000 O
   0.6660640000000000    0.3339540000000000    0.6054160000000000 O
