Li2 Ca2 P6 H16 O26
1.0
   7.3132849999999996    0.0000000000000000    0.0000000000000000
   1.7527640000000000    7.6614560000000003    0.0000000000000000
   2.7043270000000001    0.3018220000000000    9.8690259999999999
Li Ca P H O
2 2 6 16 26
direct
   0.0000000000000000    0.5000000000000000    0.5000000000000000 Li
   0.0000000000000000    0.0000000000000000    0.0000000000000000 Li
   0.1758500000000000    0.1924290000000000    0.2423500000000000 Ca
   0.8241500000000000    0.8075710000000000    0.7576500000000000 Ca
   0.2437790000000000    0.7972840000000000    0.4798130000000000 P
   0.7562210000000000    0.2027160000000000    0.5201870000000000 P
   0.4064930000000000    0.5401800000000000    0.2709870000000000 P
   0.5935070000000000    0.4598200000000000    0.7290130000000000 P
   0.6712800000000000    0.1963370000000000    0.2585340000000000 P
   0.3287200000000000    0.8036630000000000    0.7414660000000000 P
   0.3503620000000000    0.3785540000000000    0.9899190000000000 H
   0.6496380000000000    0.6214460000000001    0.0100810000000000 H
   0.1468650000000000    0.3465390000000000    0.9864560000000000 H
   0.8531350000000000    0.6534610000000000    0.0135440000000000 H
   0.6408360000000000    0.0266820000000000    0.0365710000000000 H
   0.3591640000000000    0.9733180000000000    0.9634290000000000 H
   0.6936150000000000    0.1325980000000000    0.9004950000000000 H
   0.3063850000000000    0.8674020000000000    0.0995050000000000 H
   0.3077420000000000    0.3040240000000000    0.5994920000000000 H
   0.6922580000000000    0.6959760000000000    0.4005080000000000 H
   0.1831270000000000    0.1806520000000000    0.5708740000000000 H
   0.8168730000000000    0.8193480000000000    0.4291260000000000 H
   0.0774240000000000    0.2579760000000000    0.7978030000000000 H
   0.9225760000000000    0.7420240000000000    0.2021970000000000 H
   0.9020629999999999    0.3345560000000000    0.9166530000000001 H
   0.0979370000000000    0.6654440000000000    0.0833470000000000 H
   0.0890940000000000    0.7044270000000000    0.5605690000000000 O
   0.9109060000000000    0.2955730000000000    0.4394310000000000 O
   0.1929070000000000    0.9511320000000000    0.3904880000000000 O
   0.8070929999999999    0.0488680000000000    0.6095120000000001 O
   0.4221360000000000    0.6549800000000000    0.3922150000000000 O
   0.5778640000000000    0.3450200000000000    0.6077850000000000 O
   0.6405999999999999    0.1472740000000000    0.4204400000000000 O
   0.3594000000000000    0.8527260000000000    0.5795600000000000 O
   0.2438130000000000    0.4453330000000000    0.3265910000000000 O
   0.7561870000000001    0.5546670000000000    0.6734090000000000 O
   0.4142550000000000    0.6496010000000000    0.1427280000000000 O
   0.5857450000000000    0.3503990000000000    0.8572720000000000 O
   0.6152580000000000    0.4081670000000000    0.2552550000000000 O
   0.3847420000000000    0.5918330000000001    0.7447450000000000 O
   0.8819000000000000    0.1456550000000000    0.1879910000000000 O
   0.1181000000000000    0.8543450000000000    0.8120090000000000 O
   0.5269760000000000    0.1230270000000000    0.2120030000000000 O
   0.4730240000000000    0.8769730000000000    0.7879969999999999 O
   0.7842170000000001    0.6134480000000000    0.9538850000000000 O
   0.2157830000000000    0.3865520000000000    0.0461150000000000 O
   0.7278530000000000    0.0161860000000000    0.9442690000000000 O
   0.2721470000000000    0.9838140000000000    0.0557310000000000 O
   0.1743250000000000    0.2863840000000000    0.6177100000000000 O
   0.8256750000000000    0.7136160000000000    0.3822900000000000 O
   0.0244320000000000    0.2480050000000000    0.8975270000000000 O
   0.9755680000000000    0.7519950000000000    0.1024730000000000 O
