Li2 Si2 Sb2 C2 O14
1.0
   6.4640310000000003    0.0000000000000000    0.0000000000000000
   0.0000000000000000    5.2173389999999999    0.0000000000000000
   0.0000000000000000    0.5999830000000000    9.0001789999999993
Li Si Sb C O
2 2 2 2 14
direct
   0.5090230000000000    0.7705250000000000    0.8007069999999999 Li
   0.0090230000000000    0.2294750000000000    0.1992930000000000 Li
   0.7500680000000000    0.2754190000000000    0.5702830000000000 Si
   0.2500680000000000    0.7245810000000000    0.4297170000000000 Si
   0.2456400000000000    0.2024340000000000    0.6598210000000000 Sb
   0.7456400000000000    0.7975660000000000    0.3401790000000000 Sb
   0.2516610000000000    0.2761660000000000    0.9330820000000000 C
   0.7516610000000000    0.7238340000000000    0.0669180000000000 C
   0.7253390000000000    0.6855090000000000    0.9355660000000000 O
   0.2541600000000000    0.0441720000000000    0.8762380000000000 O
   0.2746560000000000    0.4652170000000000    0.8236190000000000 O
   0.9455360000000000    0.2015040000000000    0.6783050000000000 O
   0.5522110000000000    0.1732370000000000    0.6704610000000000 O
   0.2578000000000000    0.8551050000000000    0.5901580000000000 O
   0.7360550000000000    0.5886530000000000    0.5293820000000000 O
   0.2360550000000000    0.4113470000000000    0.4706180000000000 O
   0.7578000000000000    0.1448950000000000    0.4098420000000000 O
   0.0522110000000000    0.8267630000000000    0.3295390000000000 O
   0.4455360000000000    0.7984960000000000    0.3216950000000000 O
   0.7746560000000000    0.5347830000000000    0.1763810000000000 O
   0.7541600000000001    0.9558280000000000    0.1237620000000000 O
   0.2253390000000000    0.3144910000000000    0.0644340000000000 O
