pymatgen with grid density = 1210 / number of atoms
0
Gamma
3 3 4
