K2 Li2 S2 O8
1.0
   2.6068590000000000   -4.5152130000000001    0.0000000000000000
   2.6068590000000000    4.5152130000000001    0.0000000000000000
   0.0000000000000000    0.0000000000000000    8.8185640000000003
K Li S O
2 2 2 8
direct
   0.0000000000000000    0.0000000000000000    0.9899100000000000 K
   0.0000000000000000    0.0000000000000000    0.4899100000000000 K
   0.3333330000000000    0.6666670000000000    0.8026680000000000 Li
   0.6666670000000000    0.3333330000000000    0.3026680000000000 Li
   0.3333330000000000    0.6666670000000000    0.1923390000000000 S
   0.6666670000000000    0.3333330000000000    0.6923390000000000 S
   0.6006950000000000    0.6603710000000000    0.2472740000000000 O
   0.6603710000000000    0.0596760000000000    0.7472740000000000 O
   0.3333330000000000    0.6666670000000000    0.0232600000000000 O
   0.0596760000000000    0.3993050000000000    0.2472740000000000 O
   0.6666670000000000    0.3333330000000000    0.5232599999999999 O
   0.3396290000000000    0.9403240000000000    0.2472740000000000 O
   0.3993050000000000    0.3396290000000000    0.7472740000000000 O
   0.9403240000000000    0.6006950000000000    0.7472740000000000 O
