pymatgen with grid density = 1224 / number of atoms
0
Monkhorst
2 2 4
