pymatgen with grid density = 1518 / number of atoms
0
Gamma
3 3 5
