Li4 Bi2 B2 O10
1.0
   6.2980460000000003    0.0000000000000000    0.0000000000000000
   0.0000000000000000    6.2980460000000003    0.0000000000000000
   0.0000000000000000    0.0000000000000000    4.7469140000000003
Li Bi B O
4 2 2 10
direct
   0.7500000000000000    0.2500000000000000    0.0000000000000000 Li
   0.2500000000000000    0.2500000000000000    0.0000000000000000 Li
   0.2500000000000000    0.7500000000000000    0.0000000000000000 Li
   0.7500000000000000    0.7500000000000000    0.0000000000000000 Li
   0.0000000000000000    0.5000000000000000    0.5481730000000000 Bi
   0.5000000000000000    0.0000000000000000    0.4518270000000000 Bi
   0.5000000000000000    0.5000000000000000    0.5000000000000000 B
   0.0000000000000000    0.0000000000000000    0.5000000000000000 B
   0.5000000000000000    0.3192240000000000    0.2985230000000000 O
   0.0000000000000000    0.5000000000000000    0.1193960000000000 O
   0.3192240000000000    0.5000000000000000    0.7014770000000000 O
   0.6807760000000000    0.5000000000000000    0.7014770000000000 O
   0.5000000000000000    0.6807760000000000    0.2985230000000000 O
   0.0000000000000000    0.8192240000000000    0.7014770000000000 O
   0.8192240000000000    0.0000000000000000    0.2985230000000000 O
   0.1807760000000000    0.0000000000000000    0.2985230000000000 O
   0.5000000000000000    0.0000000000000000    0.8806040000000001 O
   0.0000000000000000    0.1807760000000000    0.7014770000000000 O
