Li2 Tl2 P2 H2 O6
1.0
   2.6073040000000001    7.2082800000000002    0.0000000000000000
  -2.6073040000000001    7.2082800000000002    0.0000000000000000
   0.0000000000000000    0.0500690000000000    5.4500609999999998
Li Tl P H O
2 2 2 2 6
direct
   0.7014710000000000    0.7985670000000000    0.8140860000000000 Li
   0.2014330000000000    0.2985290000000000    0.1859140000000000 Li
   0.8910820000000000    0.9180980000000000    0.2516480000000000 Tl
   0.0819020000000000    0.1089180000000000    0.7483520000000000 Tl
   0.5824560000000000    0.6976990000000000    0.3117590000000000 P
   0.3023010000000000    0.4175440000000000    0.6882410000000000 P
   0.5781200000000000    0.5246860000000000    0.2335020000000000 H
   0.4753140000000000    0.4218800000000000    0.7664980000000000 H
   0.7932250000000000    0.6313260000000001    0.1470270000000000 O
   0.6615090000000000    0.6335470000000000    0.5848750000000000 O
   0.2882730000000000    0.9912120000000000    0.2737080000000000 O
   0.0087880000000000    0.7117270000000000    0.7262920000000000 O
   0.3664530000000000    0.3384910000000000    0.4151250000000000 O
   0.3686740000000000    0.2067750000000000    0.8529730000000000 O
