Li1 Pr2 Br2 O4
1.0
   0.4353320000000000   -4.3360609999999999    0.1017500000000000
  -5.9291190000000000    0.4203480000000000    2.5263040000000001
  -0.0512010000000000    0.1822520000000000   -7.3165259999999996
Li Pr Br O
1 2 2 4
direct
   0.8621790000000000    0.6079360000000000    0.1951710000000000 Li
   0.7515400000000000    0.1969310000000000    0.3712900000000000 Pr
   0.2034830000000000    0.9219150000000000    0.6671740000000000 Pr
   0.7013310000000000    0.7952180000000000    0.9551630000000000 Br
   0.2914280000000000    0.3360150000000000    0.0804090000000000 Br
   0.9177190000000000    0.5831040000000000    0.4473340000000000 O
   0.2758230000000000    0.2344580000000000    0.5387570000000000 O
   0.7183980000000000    0.9951980000000000    0.5885340000000000 O
   0.2086540000000000    0.0167260000000000    0.3598710000000000 O
