Li4 Ga4 Si8 O24
1.0
   8.7264789999999994    0.0000000000000000    0.0000000000000000
   0.0000000000000000    5.3147989999999998    0.0000000000000000
   0.0000000000000000    1.9021920000000001    9.0865109999999998
Li Ga Si O
4 4 8 24
direct
   0.0066060000000000    0.9889760000000000    0.2471180000000000 Li
   0.5066060000000000    0.5110240000000000    0.7528820000000001 Li
   0.9933940000000000    0.0110240000000000    0.7528820000000001 Li
   0.4933940000000000    0.4889760000000000    0.2471180000000000 Li
   0.6474320000000000    0.9867920000000000    0.2503560000000000 Ga
   0.8525680000000000    0.4867920000000000    0.2503560000000000 Ga
   0.3525680000000000    0.0132080000000000    0.7496440000000000 Ga
   0.1474320000000000    0.5132080000000000    0.7496440000000000 Ga
   0.6600290000000000    0.7770740000000000    0.9522750000000000 Si
   0.6601440000000000    0.2028790000000000    0.5479690000000000 Si
   0.1601440000000000    0.2971210000000000    0.4520310000000000 Si
   0.3398560000000000    0.7971210000000000    0.4520310000000000 Si
   0.8398560000000000    0.7028790000000000    0.5479690000000000 Si
   0.1600290000000000    0.7229260000000000    0.0477250000000000 Si
   0.8399710000000000    0.2770740000000000    0.9522750000000000 Si
   0.3399710000000000    0.2229260000000000    0.0477250000000000 Si
   0.9898910000000000    0.6982480000000000    0.1161760000000000 O
   0.1675580000000000    0.7902270000000000    0.8650510000000000 O
   0.6675580000000000    0.7097730000000000    0.1349490000000000 O
   0.8324420000000000    0.2097730000000000    0.1349490000000000 O
   0.3324420000000000    0.2902270000000000    0.8650510000000000 O
   0.6658980000000000    0.2665580000000000    0.3647490000000000 O
   0.1658980000000000    0.2334420000000000    0.6352510000000000 O
   0.3341020000000000    0.7334420000000000    0.6352510000000000 O
   0.8341020000000000    0.7665580000000000    0.3647490000000000 O
   0.2647210000000000    0.4662020000000000    0.1079350000000000 O
   0.4898910000000000    0.8017520000000000    0.8838240000000001 O
   0.0101090000000000    0.3017520000000000    0.8838240000000001 O
   0.7262780000000000    0.9102250000000000    0.6039420000000000 O
   0.2262780000000000    0.5897750000000000    0.3960580000000000 O
   0.2737220000000000    0.0897750000000000    0.3960580000000000 O
   0.7737220000000000    0.4102250000000000    0.6039420000000000 O
   0.7352790000000000    0.5337980000000000    0.8920650000000000 O
   0.7647210000000000    0.0337980000000000    0.8920650000000000 O
   0.4951790000000000    0.2294880000000000    0.6222430000000000 O
   0.2352790000000000    0.9662020000000000    0.1079350000000000 O
   0.0048210000000000    0.7294880000000000    0.6222430000000000 O
   0.5048210000000000    0.7705120000000000    0.3777570000000000 O
   0.9951790000000000    0.2705120000000000    0.3777570000000000 O
   0.5101090000000000    0.1982480000000000    0.1161760000000000 O
