Li2 Ca1 Si1 O4
1.0
  -2.5250750000000002    2.5250750000000002    3.3220010000000002
   2.5250750000000002   -2.5250750000000002    3.3220010000000002
   2.5250750000000002    2.5250750000000002   -3.3220010000000002
Li Ca Si O
2 1 1 4
direct
   0.2500000000000000    0.7500000000000000    0.5000000000000000 Li
   0.7500000000000000    0.2500000000000000    0.5000000000000000 Li
   0.5000000000000000    0.5000000000000000    0.0000000000000000 Ca
   0.0000000000000000    0.0000000000000000    0.0000000000000000 Si
   0.9479250000000000    0.3316020000000000    0.0000000000000000 O
   0.3316020000000000    0.9479250000000000    0.0000000000000000 O
   0.6683980000000000    0.6683980000000000    0.6163220000000000 O
   0.0520750000000000    0.0520750000000000    0.3836780000000000 O
