ALGO = Fast
EDIFF = 0.00115
ENCUT = 520
IBRION = 2
ISIF = 3
ISMEAR = -5
ISPIN = 2
LASPH = True
LMAXMIX = 4
LORBIT = 11
LREAL = Auto
LWAVE = False
MAGMOM = 1*0.008 3*0.223 1*0.097 3*0.002 1*0.005 1*0.001 1*-0.004 2*0.001 2*-0.002 1*0.001 1*-0.004 1*0.003 1*0.011 1*-0.002 1*-0.004 2*0.001
NELM = 100
NSW = 99
PREC = Accurate
SIGMA = 0.05
