Li1 Sc4 Si4 O14
1.0
   5.8239520000000002    0.0579250000000000    3.4570520000000000
   1.9959300000000000    5.4715670000000003    3.4570520000000000
   0.0819180000000000    0.0579250000000000    6.7722170000000004
Li Sc Si O
1 4 4 14
direct
   0.2434600000000000    0.2434600000000000    0.2434600000000000 Li
   0.9747560000000000    0.5120410000000000    0.9747560000000000 Sc
   0.5120410000000000    0.9747560000000000    0.9747560000000000 Sc
   0.9747560000000000    0.9747560000000000    0.5120410000000000 Sc
   0.0017210000000000    0.0017210000000000    0.0017210000000000 Sc
   0.5012990000000001    0.9980670000000000    0.5012990000000001 Si
   0.9980670000000000    0.5012990000000001    0.5012990000000001 Si
   0.5012990000000001    0.5012990000000001    0.9980670000000000 Si
   0.5044770000000000    0.5044770000000000    0.5044770000000000 Si
   0.4256230000000000    0.8217330000000000    0.8217330000000000 O
   0.1740580000000000    0.5762830000000000    0.5762830000000000 O
   0.8217330000000000    0.4256230000000000    0.8217330000000000 O
   0.8217330000000000    0.8217330000000000    0.4256230000000000 O
   0.4261910000000000    0.4261910000000000    0.8283650000000000 O
   0.4261910000000000    0.8283650000000000    0.4261910000000000 O
   0.1830210000000000    0.5750250000000000    0.1830210000000000 O
   0.5762830000000000    0.1740580000000000    0.5762830000000000 O
   0.1275660000000000    0.1275660000000000    0.1275660000000000 O
   0.8830300000000000    0.8830300000000000    0.8830300000000000 O
   0.8283650000000000    0.4261910000000000    0.4261910000000000 O
   0.5762830000000000    0.5762830000000000    0.1740580000000000 O
   0.1830210000000000    0.1830210000000000    0.5750250000000000 O
   0.5750250000000000    0.1830210000000000    0.1830210000000000 O
