Li2 Al2 Si4 H1 O14
1.0
  -0.0441360000000000   -5.0065600000000003    0.0464040000000000
   0.0493370000000000    0.0139000000000000    7.5921779999999996
  -7.9417770000000001   -0.0043250000000000    3.5912220000000001
Li Al Si H O
2 2 4 1 14
direct
   0.8787430000000001    0.1873970000000000    0.5934990000000000 Li
   0.3738430000000000    0.9039360000000000    0.2013420000000000 Li
   0.3961430000000000    0.1353760000000000    0.7940630000000000 Al
   0.8590850000000000    0.1092770000000000    0.2834110000000000 Al
   0.3612770000000000    0.9771919999999999    0.5175170000000000 Si
   0.8938650000000000    0.9543560000000000    0.0022700000000000 Si
   0.4119230000000000    0.5580270000000001    0.7911530000000000 Si
   0.9042080000000000    0.5359420000000000    0.0114490000000000 Si
   0.6942880000000000    0.5369240000000000    0.4556700000000000 H
   0.0520940000000000    0.0794010000000000    0.8267890000000000 O
   0.5064470000000000    0.0830850000000000    0.6245570000000000 O
   0.4661580000000000    0.3812210000000000    0.7342360000000000 O
   0.5720840000000000    0.9940590000000000    0.9803410000000000 O
   0.5483030000000000    0.9919240000000000    0.3573220000000000 O
   0.9571990000000000    0.7211700000000000    0.0622510000000000 O
   0.3109580000000000    0.7484760000000000    0.6339720000000000 O
   0.0688800000000000    0.0757080000000000    0.4542810000000000 O
   0.1829350000000000    0.4859960000000000    0.9385220000000000 O
   0.0056050000000000    0.0010040000000000    0.1567130000000000 O
   0.8012280000000001    0.3540310000000000    0.1719820000000000 O
   0.6822700000000000    0.6143200000000000    0.8632190000000000 O
   0.8282940000000000    0.4652540000000000    0.5397940000000000 O
   0.2941710000000000    0.6127250000000000    0.2587460000000000 O
