Li8 B8 H16 O8 F32
1.0
   5.1825409999999996    0.0000000000000000    0.0000000000000000
   0.0000000000000000   10.3292050000000000    0.0000000000000000
   0.0000000000000000    0.0000000000000000   13.4647760000000005
Li B H O F
8 8 16 8 32
direct
   0.0307230000000000    0.7500000000000000    0.0000000000000000 Li
   0.4692770000000000    0.7500000000000000    0.5000000000000000 Li
   0.9692770000000001    0.2500000000000000    0.0000000000000000 Li
   0.5307229999999999    0.2500000000000000    0.5000000000000000 Li
   0.2500000000000000    0.8676060000000000    0.2500000000000000 Li
   0.2500000000000000    0.6323940000000000    0.7500000000000000 Li
   0.7500000000000000    0.1323940000000000    0.7500000000000000 Li
   0.7500000000000000    0.3676060000000000    0.2500000000000000 Li
   0.5103569999999999    0.6289020000000000    0.1255500000000000 B
   0.5103569999999999    0.8710980000000000    0.8744499999999999 B
   0.9896430000000001    0.6289020000000000    0.3744500000000000 B
   0.9896430000000001    0.8710980000000000    0.6255500000000001 B
   0.4896430000000000    0.3710980000000000    0.8744499999999999 B
   0.4896430000000000    0.1289020000000000    0.1255500000000000 B
   0.0103570000000000    0.3710980000000000    0.6255500000000001 B
   0.0103570000000000    0.1289020000000000    0.3744500000000000 B
   0.8308350000000000    0.6324840000000000    0.8560720000000001 H
   0.8308350000000000    0.8675160000000000    0.1439280000000000 H
   0.6691650000000000    0.6324840000000000    0.6439279999999999 H
   0.6691650000000000    0.8675160000000000    0.3560720000000000 H
   0.1691650000000000    0.3675160000000000    0.1439280000000000 H
   0.1691650000000000    0.1324840000000000    0.8560720000000001 H
   0.3308350000000000    0.3675160000000000    0.3560720000000000 H
   0.3308350000000000    0.1324840000000000    0.6439279999999999 H
   0.0400760000000000    0.5391440000000000    0.8986560000000000 H
   0.0400760000000000    0.9608560000000000    0.1013440000000000 H
   0.4599240000000000    0.5391440000000000    0.6013440000000000 H
   0.4599240000000000    0.9608560000000000    0.3986560000000000 H
   0.9599240000000000    0.4608560000000000    0.1013440000000000 H
   0.9599240000000000    0.0391440000000000    0.8986560000000000 H
   0.5400760000000000    0.4608560000000000    0.3986560000000000 H
   0.5400760000000000    0.0391440000000000    0.6013440000000000 H
   0.0126530000000000    0.6279930000000000    0.8760520000000001 O
   0.0126530000000000    0.8720070000000000    0.1239480000000000 O
   0.4873470000000000    0.6279930000000000    0.6239479999999999 O
   0.4873470000000000    0.8720070000000000    0.3760520000000000 O
   0.9873470000000000    0.3720070000000000    0.1239480000000000 O
   0.9873470000000000    0.1279930000000000    0.8760520000000001 O
   0.5126530000000000    0.3720070000000000    0.3760520000000000 O
   0.5126530000000000    0.1279930000000000    0.6239479999999999 O
   0.2943020000000000    0.6276160000000000    0.0613870000000000 F
   0.2943020000000000    0.8723840000000000    0.9386130000000000 F
   0.2056980000000000    0.6276160000000000    0.4386130000000000 F
   0.2056980000000000    0.8723840000000000    0.5613870000000000 F
   0.7056980000000000    0.3723840000000000    0.9386130000000000 F
   0.7056980000000000    0.1276160000000000    0.0613870000000000 F
   0.7943020000000000    0.3723840000000000    0.5613870000000000 F
   0.7943020000000000    0.1276160000000000    0.4386130000000000 F
   0.5097470000000000    0.5151000000000000    0.1840850000000000 F
   0.5097470000000000    0.9849000000000000    0.8159149999999999 F
   0.9902530000000000    0.5151000000000000    0.3159150000000000 F
   0.9902530000000000    0.9849000000000000    0.6840850000000001 F
   0.4902530000000000    0.4849000000000000    0.8159149999999999 F
   0.4902530000000000    0.0151000000000000    0.1840850000000000 F
   0.0097470000000000    0.4849000000000000    0.6840850000000001 F
   0.0097470000000000    0.0151000000000000    0.3159150000000000 F
   0.7417620000000000    0.6327390000000001    0.0686360000000000 F
   0.7417620000000000    0.8672609999999999    0.9313640000000000 F
   0.7582380000000000    0.6327390000000001    0.4313640000000000 F
   0.7582380000000000    0.8672609999999999    0.5686360000000000 F
   0.2582380000000000    0.3672610000000000    0.9313640000000000 F
   0.2582380000000000    0.1327390000000000    0.0686360000000000 F
   0.2417620000000000    0.3672610000000000    0.5686360000000000 F
   0.2417620000000000    0.1327390000000000    0.4313640000000000 F
   0.5012900000000000    0.7399940000000000    0.1874370000000000 F
   0.5012900000000000    0.7600060000000000    0.8125630000000000 F
   0.9987100000000000    0.7399940000000000    0.3125630000000000 F
   0.9987100000000000    0.7600060000000000    0.6874370000000000 F
   0.4987100000000000    0.2600060000000000    0.8125630000000000 F
   0.4987100000000000    0.2399940000000000    0.1874370000000000 F
   0.0012900000000000    0.2600060000000000    0.6874370000000000 F
   0.0012900000000000    0.2399940000000000    0.3125630000000000 F
