Li2 P10 Pb4 O30
1.0
   0.0129060000000000    0.0000000000000000   -5.6040020000000004
   0.0000000000000000   -9.8098989999999997    0.0000000000000000
 -12.4746419999999993    0.0000000000000000    0.2484960000000000
Li P Pb O
2 10 4 30
direct
   0.5568890000000000    0.0151840000000000    0.4753840000000000 Li
   0.0568890000000000    0.9848160000000000    0.9753840000000000 Li
   0.8910320000000000    0.4591830000000000    0.3494510000000000 P
   0.1078260000000000    0.5408960000000000    0.6505440000000000 P
   0.6078260000000000    0.4591040000000000    0.1505440000000000 P
   0.3910320000000000    0.5408170000000000    0.8494510000000000 P
   0.2505480000000000    0.0025690000000000    0.2493230000000000 P
   0.7505480000000000    0.9974310000000000    0.7493230000000000 P
   0.0785220000000000    0.1908080000000000    0.4181610000000000 P
   0.9235900000000000    0.8080690000000000    0.5811090000000000 P
   0.4235900000000000    0.1919310000000000    0.0811090000000000 P
   0.5785220000000000    0.8091920000000000    0.9181610000000000 P
   0.0950650000000000    0.6850170000000000    0.0920780000000000 Pb
   0.9024070000000000    0.3123850000000000    0.9109000000000000 Pb
   0.4024070000000000    0.6876150000000000    0.4109000000000000 Pb
   0.5950650000000000    0.3149830000000000    0.5920780000000000 Pb
   0.7497840000000000    0.3878630000000000    0.2499630000000000 O
   0.2497840000000000    0.6121370000000000    0.7499630000000000 O
   0.3098950000000000    0.1668320000000000    0.4783210000000000 O
   0.6926590000000000    0.8344700000000000    0.5203610000000000 O
   0.1926590000000000    0.1655300000000000    0.0203610000000000 O
   0.8098950000000000    0.8331680000000000    0.9783210000000000 O
   0.4018780000000000    0.9287339999999999    0.3323150000000000 O
   0.6038740000000000    0.0755280000000000    0.6684510000000000 O
   0.1038740000000000    0.9244720000000000    0.1684510000000000 O
   0.9018780000000000    0.0712660000000000    0.8323150000000000 O
   0.8435830000000000    0.1688030000000000    0.4723350000000000 O
   0.1555760000000000    0.8271230000000001    0.5259790000000000 O
   0.6555760000000000    0.1728770000000000    0.0259790000000000 O
   0.3435830000000000    0.8311970000000000    0.9723349999999999 O
   0.0927910000000000    0.3457350000000000    0.3729430000000000 O
   0.9048890000000001    0.6536470000000000    0.6277560000000000 O
   0.4048890000000000    0.3463530000000000    0.1277560000000000 O
   0.5927910000000000    0.6542650000000000    0.8729430000000000 O
   0.7218570000000000    0.4700850000000000    0.4416760000000000 O
   0.2780770000000000    0.5295200000000000    0.5586660000000000 O
   0.7780770000000000    0.4704800000000000    0.0586660000000000 O
   0.2218570000000000    0.5299150000000000    0.9416760000000000 O
   0.0140310000000000    0.5871980000000000    0.3140340000000000 O
   0.9858610000000000    0.4124760000000000    0.6856700000000000 O
   0.4858610000000000    0.5875240000000000    0.1856700000000000 O
   0.5140310000000000    0.4128020000000000    0.8140340000000000 O
   0.4319150000000000    0.1059160000000000    0.1909830000000000 O
   0.5674530000000000    0.8954520000000000    0.8085960000000000 O
   0.0674530000000000    0.1045480000000000    0.3085960000000000 O
   0.9319150000000000    0.8940840000000000    0.6909830000000000 O
