pymatgen with grid density = 1474 / number of atoms
0
Gamma
4 2 1
