Li12 Ce8 B12 O36
1.0
   5.3976678600000003    0.0000000000000000   -2.3440712900000000
  -5.4059812500000000    0.0000000000000000   -7.1152287699999999
   0.0000000000000000   14.3338226199999994    0.0000000000000000
Li Ce B O
12 8 12 36
direct
   0.0769157000000000    0.9818138800000000    0.6650266600000000 Li
   0.9230843000000000    0.0181861200000000    0.3349733400000000 Li
   0.4230843000000000    0.5181861200000000    0.1650266600000000 Li
   0.5769157000000000    0.4818138800000000    0.8349733400000000 Li
   0.8003962400000000    0.7077256500000000    0.2179222800000000 Li
   0.1996037600000000    0.2922743500000000    0.7820777200000000 Li
   0.6996037600000000    0.7922743500000000    0.7179222800000000 Li
   0.3003962400000000    0.2077256500000000    0.2820777200000000 Li
   0.1446000300000000    0.7079964200000000    0.1020485000000000 Li
   0.8553999700000000    0.2920035800000000    0.8979515000000000 Li
   0.3553999700000000    0.7920035800000000    0.6020485000000000 Li
   0.6446000300000000    0.2079964200000000    0.3979515000000000 Li
   0.3643453800000000    0.8078728200000000    0.3348067600000000 Ce
   0.6356546199999999    0.1921271800000000    0.6651932400000000 Ce
   0.1356546200000000    0.6921271800000000    0.8348067600000000 Ce
   0.8643453800000001    0.3078728200000000    0.1651932400000000 Ce
   0.8118024200000000    0.6601980600000000    0.4955032000000000 Ce
   0.1881975800000000    0.3398019400000000    0.5044968000000000 Ce
   0.6881975800000000    0.8398019400000000    0.9955032000000000 Ce
   0.3118024200000000    0.1601980600000000    0.0044968000000000 Ce
   0.7497821700000000    0.5139320800000000    0.0154923200000000 B
   0.2502178300000000    0.4860679200000000    0.9845076800000000 B
   0.7502178300000000    0.9860679200000000    0.5154923200000000 B
   0.2497821700000000    0.0139320800000000    0.4845076800000000 B
   0.0843029300000000    0.9723181700000000    0.1639079700000000 B
   0.9156970700000000    0.0276818300000000    0.8360920300000000 B
   0.4156970700000000    0.5276818300000000    0.6639079700000000 B
   0.5843029300000000    0.4723181700000000    0.3360920300000000 B
   0.5908681300000000    0.9791818500000000    0.1755921100000000 B
   0.4091318700000000    0.0208181500000000    0.8244078900000000 B
   0.9091318700000000    0.5208181500000000    0.6755921100000000 B
   0.0908681300000000    0.4791818500000000    0.3244078900000000 B
   0.7719887300000000    0.5849199700000000    0.1014500600000000 O
   0.2280112700000000    0.4150800300000000    0.8985499400000000 O
   0.7280112700000000    0.9150800300000000    0.6014500600000000 O
   0.2719887300000000    0.0849199700000000    0.3985499400000000 O
   0.1104696800000000    0.5660145700000000    0.4057628300000000 O
   0.8895303200000000    0.4339854300000000    0.5942371700000000 O
   0.3895303200000000    0.9339854300000000    0.9057628300000000 O
   0.6104696800000000    0.0660145700000000    0.0942371700000000 O
   0.0600807300000000    0.8824239600000000    0.2431908900000000 O
   0.9399192700000000    0.1175760400000000    0.7568091100000000 O
   0.4399192700000000    0.6175760400000000    0.7431908900000000 O
   0.5600807300000000    0.3824239600000000    0.2568091100000000 O
   0.7154894100000000    0.8981395400000000    0.4347407100000000 O
   0.2845105900000000    0.1018604600000000    0.5652592900000000 O
   0.7845105900000000    0.6018604600000000    0.9347407100000000 O
   0.2154894100000000    0.3981395400000000    0.0652592900000000 O
   0.0662147500000000    0.9069898600000000    0.0756818600000000 O
   0.9337852500000000    0.0930101400000000    0.9243181400000000 O
   0.4337852500000000    0.5930101400000000    0.5756818600000000 O
   0.5662147500000000    0.4069898600000000    0.4243181400000000 O
   0.5307286900000000    0.8198952700000000    0.1686711500000000 O
   0.4692713100000000    0.1801047300000000    0.8313288500000000 O
   0.9692713100000000    0.6801047300000000    0.6686711500000000 O
   0.0307286900000000    0.3198952700000000    0.3313288500000000 O
   0.1958971700000000    0.8544692400000000    0.4905470500000000 O
   0.8041028300000000    0.1455307600000000    0.5094529500000000 O
   0.3041028300000000    0.6455307600000000    0.9905470500000000 O
   0.6958971700000000    0.3544692400000000    0.0094529500000000 O
   0.1372379200000000    0.5519297700000000    0.2390309900000000 O
   0.8627620800000000    0.4480702300000000    0.7609690099999999 O
   0.3627620800000000    0.9480702300000000    0.7390309900000001 O
   0.6372379200000000    0.0519297700000000    0.2609690100000000 O
   0.6322806800000000    0.6314642100000000    0.3315181600000000 O
   0.3677193200000000    0.3685357900000000    0.6684818400000000 O
   0.8677193200000000    0.8685357900000000    0.8315181600000000 O
   0.1322806800000000    0.1314642100000000    0.1684818400000000 O
