ALGO = Fast
EDIFF = 0.0018000000000000002
ENCUT = 520
IBRION = 2
ISIF = 3
ISMEAR = -5
ISPIN = 2
LASPH = True
LMAXMIX = 6
LORBIT = 11
LREAL = Auto
LWAVE = False
MAGMOM = 2*0.0 4*0.266 6*0.009 2*0.021 2*0.006 3*0.021 4*0.006 2*0.021 4*0.006 3*0.021 2*0.006 2*0.021
NELM = 100
NSW = 99
PREC = Accurate
SIGMA = 0.05
