pymatgen with grid density = 950 / number of atoms
0
Gamma
1 4 1
