Li2 Al4 H12 Br2 O12
1.0
   2.6017280000000000   -4.5063240000000002    0.0000000000000000
   2.6017280000000000    4.5063240000000002    0.0000000000000000
   0.0000000000000000    0.0000000000000000   14.5320000000000000
Li Al H Br O
2 4 12 2 12
direct
   0.0000000000000000    0.0000000000000000    0.0000000000000000 Li
   0.0000000000000000    0.0000000000000000    0.5000000000000000 Li
   0.6666670000000000    0.3333330000000000    0.0000000000000000 Al
   0.3333330000000000    0.6666670000000000    0.0000000000000000 Al
   0.3333330000000000    0.6666670000000000    0.5000000000000000 Al
   0.6666670000000000    0.3333330000000000    0.5000000000000000 Al
   0.3145000000000000    0.0000000000000000    0.3682310000000000 H
   0.0000000000000000    0.3145000000000000    0.3682310000000000 H
   0.6855000000000000    0.6855000000000000    0.3682310000000000 H
   0.6855000000000000    0.0000000000000000    0.6317690000000000 H
   0.0000000000000000    0.6855000000000000    0.6317690000000000 H
   0.3145000000000000    0.3145000000000000    0.6317690000000000 H
   0.6855000000000000    0.0000000000000000    0.8682310000000000 H
   0.0000000000000000    0.6855000000000000    0.8682310000000000 H
   0.3145000000000000    0.3145000000000000    0.8682310000000000 H
   0.3145000000000000    0.0000000000000000    0.1317690000000000 H
   0.0000000000000000    0.3145000000000000    0.1317690000000000 H
   0.6855000000000000    0.6855000000000000    0.1317690000000000 H
   0.0000000000000000    0.0000000000000000    0.7500000000000000 Br
   0.0000000000000000    0.0000000000000000    0.2500000000000000 Br
   0.3691140000000000    0.0000000000000000    0.4330300000000000 O
   0.0000000000000000    0.3691140000000000    0.4330300000000000 O
   0.6308859999999999    0.6308859999999999    0.4330300000000000 O
   0.6308859999999999    0.0000000000000000    0.5669700000000000 O
   0.0000000000000000    0.6308859999999999    0.5669700000000000 O
   0.3691140000000000    0.3691140000000000    0.5669700000000000 O
   0.6308859999999999    0.0000000000000000    0.9330300000000000 O
   0.0000000000000000    0.6308859999999999    0.9330300000000000 O
   0.3691140000000000    0.3691140000000000    0.9330300000000000 O
   0.3691140000000000    0.0000000000000000    0.0669700000000000 O
   0.0000000000000000    0.3691140000000000    0.0669700000000000 O
   0.6308859999999999    0.6308859999999999    0.0669700000000000 O
