Li6 P6 H8 O23
1.0
  -0.1089070000000000   -0.0664440000000000    8.2356890000000007
  -2.7088530000000000   -7.2620230000000001    2.6210149999999999
   8.9813939999999999   -0.0470650000000000   -4.1681699999999999
Li P H O
6 6 8 23
direct
   0.2228970000000000    0.5972270000000000    0.6773600000000000 Li
   0.7783250000000000    0.4012320000000000    0.3252370000000000 Li
   0.1417550000000000    0.0186050000000000    0.8484590000000000 Li
   0.8632500000000000    0.9779200000000000    0.1506910000000000 Li
   0.0924320000000000    0.5842110000000000    0.9395030000000000 Li
   0.9028130000000000    0.4136610000000000    0.0589570000000000 Li
   0.1767050000000000    0.2179530000000000    0.4173440000000000 P
   0.8228990000000000    0.7826490000000000    0.5813280000000000 P
   0.7140540000000000    0.1049060000000000    0.8357320000000000 P
   0.2849660000000000    0.8970610000000000    0.1636790000000000 P
   0.3106320000000000    0.2594300000000000    0.7609300000000000 P
   0.6889760000000000    0.7404040000000000    0.2384720000000000 P
   0.8147660000000000    0.5263870000000000    0.7135150000000000 H
   0.1746570000000000    0.4696260000000000    0.2776520000000000 H
   0.4865720000000000    0.7002170000000000    0.7005800000000000 H
   0.4831290000000000    0.3330500000000000    0.2987100000000000 H
   0.8411419999999999    0.3815540000000000    0.7922310000000000 H
   0.1545020000000000    0.6174900000000000    0.2065500000000000 H
   0.5358410000000000    0.7293980000000000    0.8811909999999999 H
   0.4775490000000000    0.2602820000000000    0.1241570000000000 H
   0.6829809999999999    0.9369180000000000    0.6669050000000000 O
   0.3179530000000000    0.0622270000000000    0.3343820000000000 O
   0.0173330000000000    0.8085190000000000    0.6828590000000000 O
   0.9830179999999999    0.1912930000000000    0.3147210000000000 O
   0.8578960000000000    0.5062620000000000    0.8158240000000000 O
   0.1389380000000000    0.4902750000000000    0.1766190000000000 O
   0.8610290000000000    0.2009520000000000    0.8633910000000000 O
   0.1369140000000000    0.8007300000000001    0.1328290000000000 O
   0.2304010000000000    0.1587140000000000    0.5698450000000000 O
   0.7671760000000000    0.8434350000000000    0.4294590000000000 O
   0.4487410000000000    0.6845110000000000    0.7743870000000000 O
   0.5558950000000000    0.3080840000000000    0.2346280000000000 O
   0.2235270000000000    0.4032630000000000    0.4662290000000000 O
   0.7754870000000000    0.5977580000000000    0.5322510000000000 O
   0.7666680000000000    0.5370840000000000    0.2003580000000000 O
   0.2324410000000000    0.4626280000000000    0.8011020000000000 O
   0.5240530000000000    0.2446300000000000    0.7918730000000000 O
   0.4747580000000000    0.7560370000000000    0.2054970000000000 O
   0.7339610000000000    0.0400120000000000    0.9615500000000000 O
   0.2658090000000000    0.9671330000000000    0.0408920000000000 O
   0.7172940000000000    0.8422870000000000    0.1594660000000000 O
   0.2853690000000000    0.1539550000000000    0.8384530000000000 O
   0.3464980000000000    0.7190299999999999    0.4842030000000000 O
