Li4 Sn16 P12 O48
1.0
   7.3161990000000001    0.0000000000000000    0.0000000000000000
   0.0000000000000000   10.6941710000000008    0.0000000000000000
   0.0000000000000000    0.0000000000000000   15.9001160000000006
Li Sn P O
4 16 12 48
direct
   0.0163280000000000    0.7354720000000000    0.2500000000000000 Li
   0.4836720000000000    0.2354720000000000    0.7500000000000000 Li
   0.5163280000000000    0.7645280000000000    0.2500000000000000 Li
   0.9836720000000000    0.2645280000000000    0.7500000000000000 Li
   0.1380010000000000    0.4318930000000000    0.5995480000000000 Sn
   0.1380010000000000    0.4318930000000000    0.9004520000000000 Sn
   0.1611380000000000    0.8455790000000000    0.6054600000000000 Sn
   0.1611380000000000    0.8455790000000000    0.8945400000000000 Sn
   0.3388620000000000    0.3455790000000000    0.1054600000000000 Sn
   0.3388620000000000    0.3455790000000000    0.3945400000000000 Sn
   0.3619990000000000    0.9318930000000000    0.0995480000000000 Sn
   0.3619990000000000    0.9318930000000000    0.4004520000000000 Sn
   0.6380010000000000    0.0681070000000000    0.5995480000000000 Sn
   0.6380010000000000    0.0681070000000000    0.9004520000000000 Sn
   0.6611380000000000    0.6544210000000000    0.6054600000000000 Sn
   0.6611380000000000    0.6544210000000000    0.8945400000000000 Sn
   0.8388620000000000    0.1544210000000000    0.1054600000000000 Sn
   0.8388620000000000    0.1544210000000000    0.3945400000000000 Sn
   0.8619990000000000    0.5681070000000000    0.4004520000000000 Sn
   0.8619990000000000    0.5681070000000000    0.0995480000000000 Sn
   0.0264750000000000    0.4025810000000000    0.2500000000000000 P
   0.1451770000000000    0.1372090000000000    0.5887040000000000 P
   0.1451770000000000    0.1372090000000000    0.9112960000000000 P
   0.3548230000000000    0.6372090000000000    0.0887040000000000 P
   0.3548230000000000    0.6372090000000000    0.4112960000000000 P
   0.4735250000000000    0.9025810000000000    0.7500000000000000 P
   0.5264750000000000    0.0974190000000000    0.2500000000000000 P
   0.6451770000000000    0.3627910000000000    0.5887040000000000 P
   0.6451770000000000    0.3627910000000000    0.9112960000000000 P
   0.8548230000000000    0.8627910000000000    0.4112960000000000 P
   0.8548230000000000    0.8627910000000000    0.0887040000000000 P
   0.9735250000000000    0.5974190000000000    0.7500000000000000 P
   0.9948260000000000    0.9640860000000000    0.1175200000000000 O
   0.9948260000000000    0.9640860000000000    0.3824800000000000 O
   0.0406510000000000    0.4565080000000000    0.7500000000000000 O
   0.0478170000000000    0.6568870000000000    0.6675650000000000 O
   0.0478170000000000    0.6568870000000000    0.8324350000000000 O
   0.0876330000000000    0.2054320000000000    0.9929690000000000 O
   0.0876330000000000    0.2054320000000000    0.5070310000000000 O
   0.1682660000000000    0.5676650000000000    0.0783710000000000 O
   0.1682660000000000    0.5676650000000000    0.4216290000000000 O
   0.1618620000000000    0.2403280000000000    0.6592800000000000 O
   0.1618620000000000    0.2403280000000000    0.8407200000000000 O
   0.2391130000000000    0.3922720000000000    0.2500000000000000 O
   0.2608870000000000    0.8922720000000000    0.7500000000000000 O
   0.3381380000000000    0.7403280000000000    0.3407200000000000 O
   0.3381380000000000    0.7403280000000000    0.1592800000000000 O
   0.3317340000000000    0.0676650000000000    0.5783710000000000 O
   0.3317340000000000    0.0676650000000000    0.9216290000000000 O
   0.4123670000000000    0.7054319999999999    0.4929690000000000 O
   0.4123670000000000    0.7054319999999999    0.0070310000000000 O
   0.4521830000000000    0.1568870000000000    0.1675650000000000 O
   0.4521830000000000    0.1568870000000000    0.3324350000000000 O
   0.4593490000000000    0.9565080000000000    0.2500000000000000 O
   0.5051740000000000    0.4640860000000000    0.6175200000000000 O
   0.5051740000000000    0.4640860000000000    0.8824800000000000 O
   0.4948260000000000    0.5359140000000000    0.1175200000000000 O
   0.4948260000000000    0.5359140000000000    0.3824800000000000 O
   0.5406510000000000    0.0434920000000000    0.7500000000000000 O
   0.5478170000000000    0.8431130000000000    0.6675650000000000 O
   0.5478170000000000    0.8431130000000000    0.8324350000000000 O
   0.5876330000000000    0.2945680000000000    0.9929690000000000 O
   0.5876330000000000    0.2945680000000000    0.5070310000000000 O
   0.6682660000000000    0.9323350000000000    0.0783710000000000 O
   0.6682660000000000    0.9323350000000000    0.4216290000000000 O
   0.6618620000000000    0.2596720000000000    0.6592800000000000 O
   0.6618620000000000    0.2596720000000000    0.8407200000000000 O
   0.7391130000000000    0.1077280000000000    0.2500000000000000 O
   0.7608870000000000    0.6077280000000000    0.7500000000000000 O
   0.8381380000000000    0.7596720000000000    0.1592800000000000 O
   0.8381380000000000    0.7596720000000000    0.3407200000000000 O
   0.8317340000000000    0.4323350000000000    0.5783710000000000 O
   0.8317340000000000    0.4323350000000000    0.9216290000000000 O
   0.9123670000000000    0.7945680000000001    0.4929690000000000 O
   0.9123670000000000    0.7945680000000001    0.0070310000000000 O
   0.9521830000000000    0.3431130000000000    0.1675650000000000 O
   0.9521830000000000    0.3431130000000000    0.3324350000000000 O
   0.9593490000000000    0.5434920000000000    0.2500000000000000 O
   0.0051740000000000    0.0359140000000000    0.6175200000000000 O
   0.0051740000000000    0.0359140000000000    0.8824800000000000 O
