Li4 Zn4 B4 O12
1.0
   5.0632919999999997    0.0000000000000000    0.0000000000000000
   2.5326279999999999    4.3876559999999998    0.0000000000000000
   0.1150240000000000    0.0611350000000000   11.5025270000000006
Li Zn B O
4 4 4 12
direct
   0.3553250000000000    0.3481250000000000    0.5323720000000000 Li
   0.3495010000000000    0.3689590000000000    0.7169400000000000 Li
   0.6714180000000000    0.6404740000000000    0.3138420000000000 Li
   0.6565810000000000    0.6491190000000000    0.9356580000000000 Li
   0.0019470000000000    0.3308730000000000    0.3396760000000000 Zn
   0.6799060000000000    0.0190070000000000    0.1229130000000000 Zn
   0.0047340000000000    0.6772270000000000    0.6254760000000000 Zn
   0.3043830000000000    0.9846730000000000    0.9091780000000000 Zn
   0.0082450000000000    0.6696390000000000    0.1258020000000000 B
   0.6723300000000000    0.0110050000000000    0.6252290000000000 B
   0.3284820000000000    0.9803860000000000    0.3705190000000000 B
   0.9851640000000000    0.3327050000000000    0.8793820000000000 B
   0.0167870000000000    0.4132750000000000    0.1651770000000000 O
   0.4136530000000000    0.0443570000000000    0.6343630000000000 O
   0.3431260000000000    0.2632700000000000    0.3745570000000000 O
   0.2668320000000000    0.3448410000000000    0.8747900000000000 O
   0.0534760000000000    0.7187160000000000    0.3989640000000000 O
   0.7267030000000000    0.0612390000000000    0.9106200000000000 O
   0.2713250000000000    0.9212200000000000    0.0834690000000000 O
   0.9635150000000000    0.2690710000000000    0.6171150000000000 O
   0.7345940000000000    0.6676400000000000    0.1270540000000000 O
   0.6392350000000000    0.7198660000000000    0.6245230000000001 O
   0.5884490000000000    0.9666580000000000    0.3414930000000000 O
   0.9692910000000000    0.5926570000000000    0.8508860000000000 O
