Li4 Bi24 B12 O56
1.0
  16.1548219999999993    0.0000000000000000    0.0000000000000000
   0.0000000000000000    8.7414699999999996    0.0000000000000000
   0.0000000000000000    0.2041440000000000    9.3378460000000008
Li Bi B O
4 24 12 56
direct
   0.3915170000000000    0.1784810000000000    0.9384610000000000 Li
   0.8915170000000000    0.3215190000000000    0.5615390000000000 Li
   0.1084830000000000    0.6784810000000000    0.4384610000000000 Li
   0.6084830000000000    0.8215190000000000    0.0615390000000000 Li
   0.0118670000000000    0.0572850000000000    0.2874230000000000 Bi
   0.1727500000000000    0.0459340000000000    0.9414439999999999 Bi
   0.6652030000000000    0.0738610000000000    0.3331270000000000 Bi
   0.3216050000000000    0.1433160000000000    0.3016360000000000 Bi
   0.4969830000000000    0.1975770000000000    0.5691810000000000 Bi
   0.6439230000000000    0.2213010000000000    0.9320460000000000 Bi
   0.1439230000000000    0.2786990000000000    0.5679540000000000 Bi
   0.9969830000000000    0.3024230000000000    0.9308190000000000 Bi
   0.8216050000000000    0.3566840000000000    0.1983640000000000 Bi
   0.1652030000000000    0.4261390000000000    0.1668730000000000 Bi
   0.5118670000000000    0.4427150000000000    0.2125770000000000 Bi
   0.6727500000000000    0.4540660000000000    0.5585560000000001 Bi
   0.3272500000000000    0.5459340000000000    0.4414440000000000 Bi
   0.4881330000000000    0.5572850000000000    0.7874230000000000 Bi
   0.8347970000000000    0.5738610000000000    0.8331270000000000 Bi
   0.1783950000000000    0.6433160000000000    0.8016360000000000 Bi
   0.0030170000000000    0.6975770000000000    0.0691810000000000 Bi
   0.8560770000000000    0.7213010000000000    0.4320460000000000 Bi
   0.3560770000000000    0.7786990000000000    0.0679540000000000 Bi
   0.5030170000000000    0.8024230000000000    0.4308190000000000 Bi
   0.6783950000000000    0.8566840000000000    0.6983640000000000 Bi
   0.3347970000000000    0.9261390000000000    0.6668730000000000 Bi
   0.8272500000000000    0.9540660000000000    0.0585560000000000 Bi
   0.9881330000000000    0.9427150000000000    0.7125770000000000 Bi
   0.4972980000000000    0.0635950000000000    0.1428140000000000 B
   0.8300380000000001    0.0688490000000000    0.4679500000000000 B
   0.8086820000000000    0.1887430000000000    0.7768480000000000 B
   0.3086820000000000    0.3112570000000000    0.7231520000000000 B
   0.3300380000000000    0.4311510000000000    0.0320500000000000 B
   0.9972980000000000    0.4364050000000000    0.3571860000000000 B
   0.0027020000000000    0.5635950000000000    0.6428140000000000 B
   0.6699619999999999    0.5688490000000000    0.9679500000000000 B
   0.6913180000000000    0.6887430000000000    0.2768480000000000 B
   0.1913180000000000    0.8112570000000000    0.2231520000000000 B
   0.1699620000000000    0.9311510000000000    0.5320500000000000 B
   0.5027020000000000    0.9364050000000000    0.8571860000000000 B
   0.4109010000000000    0.0070980000000000    0.4514560000000000 O
   0.4145020000000000    0.0332400000000000    0.1119700000000000 O
   0.9136590000000000    0.0415680000000000    0.4854170000000000 O
   0.2261010000000000    0.0511260000000000    0.5084100000000000 O
   0.4528060000000000    0.0413590000000000    0.7860150000000000 O
   0.7481430000000000    0.0833650000000000    0.8237130000000000 O
   0.7281240000000000    0.1554740000000000    0.1233650000000000 O
   0.9074759999999999    0.1576040000000000    0.1335220000000000 O
   0.8910000000000000    0.1506790000000000    0.7950090000000000 O
   0.0813620000000000    0.1533630000000000    0.7851870000000000 O
   0.0915870000000000    0.1971230000000000    0.1051480000000000 O
   0.2846430000000000    0.1691280000000000    0.7795500000000000 O
   0.5297680000000000    0.2048420000000000    0.0982590000000000 O
   0.7981810000000000    0.2091860000000000    0.4220160000000000 O
   0.2981810000000000    0.2908140000000000    0.0779840000000000 O
   0.0297680000000000    0.2951580000000000    0.4017410000000000 O
   0.5915870000000000    0.3028770000000000    0.3948520000000000 O
   0.4074760000000000    0.3423960000000000    0.3664780000000000 O
   0.7846430000000000    0.3308720000000000    0.7204500000000000 O
   0.2281240000000000    0.3445260000000000    0.3766350000000000 O
   0.5813620000000000    0.3466370000000000    0.7148130000000000 O
   0.3910000000000000    0.3493210000000000    0.7049910000000000 O
   0.4136590000000000    0.4584320000000000    0.0145830000000000 O
   0.2481430000000000    0.4166350000000000    0.6762870000000000 O
   0.9145020000000000    0.4667600000000000    0.3880300000000000 O
   0.9528060000000000    0.4586410000000000    0.7139850000000000 O
   0.7261010000000000    0.4488740000000000    0.9915900000000000 O
   0.9109010000000000    0.4929020000000000    0.0485440000000000 O
   0.0890990000000000    0.5070980000000000    0.9514560000000000 O
   0.2738990000000000    0.5511260000000000    0.0084100000000000 O
   0.0471940000000000    0.5413590000000000    0.2860150000000000 O
   0.0854980000000000    0.5332400000000000    0.6119700000000000 O
   0.7518570000000000    0.5833650000000000    0.3237130000000000 O
   0.5863410000000000    0.5415680000000000    0.9854170000000000 O
   0.6090000000000000    0.6506790000000000    0.2950090000000000 O
   0.4186380000000000    0.6533630000000000    0.2851870000000000 O
   0.7718760000000000    0.6554740000000000    0.6233649999999999 O
   0.2153570000000000    0.6691279999999999    0.2795500000000000 O
   0.5925240000000001    0.6576040000000000    0.6335220000000000 O
   0.4084130000000000    0.6971230000000000    0.6051480000000000 O
   0.9702320000000000    0.7048420000000000    0.5982590000000000 O
   0.7018190000000000    0.7091860000000000    0.9220159999999999 O
   0.2018190000000000    0.7908140000000000    0.5779840000000001 O
   0.4702320000000000    0.7951580000000000    0.9017410000000000 O
   0.7153570000000000    0.8308720000000001    0.2204500000000000 O
   0.9084130000000000    0.8028770000000000    0.8948520000000000 O
   0.9186380000000000    0.8466370000000000    0.2148130000000000 O
   0.1090000000000000    0.8493210000000000    0.2049910000000000 O
   0.0925240000000000    0.8423960000000000    0.8664780000000000 O
   0.2718760000000000    0.8445260000000000    0.8766350000000001 O
   0.2518570000000000    0.9166350000000000    0.1762870000000000 O
   0.5471940000000000    0.9586410000000000    0.2139850000000000 O
   0.7738990000000000    0.9488740000000000    0.4915900000000000 O
   0.0863410000000000    0.9584320000000000    0.5145830000000000 O
   0.5854980000000000    0.9667600000000000    0.8880300000000000 O
   0.5890990000000000    0.9929020000000000    0.5485440000000000 O
