Li16 B24 P8 O64
1.0
   8.7856970000000008    0.0000000000000000    0.0000000000000000
  -0.0140490000000000   10.8422830000000001    0.0000000000000000
  -0.1343420000000000   -0.1634570000000000   13.0751559999999998
Li B P O
16 24 8 64
direct
   0.8799860000000000    0.6547550000000000    0.2856250000000000 Li
   0.1200140000000000    0.3452450000000000    0.7143750000000000 Li
   0.8649250000000001    0.2276570000000000    0.7364760000000000 Li
   0.1350750000000000    0.7723430000000000    0.2635240000000000 Li
   0.7821550000000000    0.7223220000000000    0.9611720000000000 Li
   0.2178450000000000    0.2776780000000000    0.0388280000000000 Li
   0.7447080000000000    0.4561050000000000    0.6709770000000000 Li
   0.2552920000000000    0.5438950000000000    0.3290230000000000 Li
   0.7401640000000000    0.9403750000000000    0.1726780000000000 Li
   0.2598360000000000    0.0596250000000000    0.8273220000000000 Li
   0.6366540000000001    0.4579470000000000    0.9905030000000000 Li
   0.3633460000000000    0.5420530000000000    0.0094970000000000 Li
   0.5643770000000000    0.9582330000000000    0.5855450000000000 Li
   0.4356230000000000    0.0417670000000000    0.4144550000000000 Li
   0.2372010000000000    0.8302270000000000    0.6038820000000000 Li
   0.7627990000000000    0.1697730000000000    0.3961180000000000 Li
   0.9516019999999999    0.6732300000000000    0.6063000000000000 B
   0.0483980000000000    0.3267700000000000    0.3937000000000000 B
   0.8810060000000000    0.8896620000000000    0.5740320000000000 B
   0.1189940000000000    0.1103380000000000    0.4259680000000000 B
   0.8096650000000000    0.9884860000000000    0.8549770000000000 B
   0.1903350000000000    0.0115140000000000    0.1450230000000000 B
   0.7995290000000000    0.4452490000000000    0.3864690000000000 B
   0.2004710000000000    0.5547510000000000    0.6135310000000000 B
   0.6986790000000001    0.7395040000000001    0.6479390000000000 B
   0.3013210000000000    0.2604960000000000    0.3520610000000000 B
   0.6064150000000000    0.6050110000000000    0.3524870000000000 B
   0.3935850000000000    0.3949890000000000    0.6475130000000000 B
   0.5535110000000000    0.9138490000000000    0.8787550000000000 B
   0.4464890000000000    0.0861510000000000    0.1212450000000000 B
   0.4560710000000000    0.6179140000000000    0.6602050000000000 B
   0.5439290000000000    0.3820860000000000    0.3397950000000000 B
   0.4093900000000000    0.8849600000000000    0.2074930000000000 B
   0.5906100000000000    0.1150400000000000    0.7925070000000000 B
   0.3100220000000000    0.8036590000000000    0.9230140000000000 B
   0.6899780000000000    0.1963410000000000    0.0769860000000000 B
   0.0925480000000000    0.6593440000000000    0.9430780000000000 B
   0.9074520000000000    0.3406560000000000    0.0569220000000000 B
   0.0530420000000000    0.8797760000000000    0.8991240000000000 B
   0.9469580000000000    0.1202240000000000    0.1008760000000000 B
   0.9219970000000000    0.4707370000000000    0.8725740000000000 P
   0.0780030000000000    0.5292630000000000    0.1274260000000000 P
   0.9015680000000000    0.9342230000000000    0.3633460000000000 P
   0.0984320000000000    0.0657770000000000    0.6366540000000001 P
   0.4086430000000000    0.7920940000000000    0.4068640000000000 P
   0.5913570000000000    0.2079060000000000    0.5931360000000000 P
   0.4081780000000000    0.3078110000000000    0.8565660000000000 P
   0.5918220000000000    0.6921890000000001    0.1434340000000000 P
   0.9965270000000001    0.7901240000000000    0.5864440000000000 O
   0.0034730000000000    0.2098760000000000    0.4135560000000000 O
   0.9964810000000000    0.7649500000000000    0.9105830000000000 O
   0.0035190000000000    0.2350500000000000    0.0894170000000000 O
   0.9641880000000000    0.9797090000000001    0.8739500000000000 O
   0.0358120000000000    0.0202910000000000    0.1260500000000000 O
   0.9574030000000000    0.3659090000000000    0.9520480000000000 O
   0.0425970000000000    0.6340910000000000    0.0479520000000000 O
   0.9514950000000000    0.4248910000000000    0.3996660000000000 O
   0.0485050000000000    0.5751090000000000    0.6003340000000000 O
   0.9375559999999999    0.0073750000000000    0.6116040000000000 O
   0.0624440000000000    0.9926250000000000    0.3883960000000000 O
   0.9323970000000000    0.8199070000000001    0.2988950000000000 O
   0.0676030000000000    0.1800930000000000    0.7011050000000000 O
   0.9309670000000000    0.4445960000000000    0.1287070000000000 O
   0.0690330000000000    0.5554040000000000    0.8712930000000000 O
   0.9150400000000000    0.4067730000000000    0.7674500000000000 O
   0.0849600000000000    0.5932269999999999    0.2325500000000000 O
   0.8270280000000000    0.8977880000000000    0.4678000000000000 O
   0.1729720000000000    0.1022120000000000    0.5322000000000000 O
   0.8022510000000000    0.6432800000000000    0.6350870000000000 O
   0.1977490000000000    0.3567200000000000    0.3649130000000000 O
   0.7820220000000000    0.5446750000000000    0.9025390000000000 O
   0.2179780000000000    0.4553250000000000    0.0974610000000000 O
   0.7548380000000000    0.0920980000000000    0.8101850000000000 O
   0.2451620000000000    0.9079020000000000    0.1898150000000000 O
   0.7514310000000000    0.5632830000000000    0.3980870000000000 O
   0.2485690000000000    0.4367170000000000    0.6019130000000000 O
   0.7402750000000000    0.8586790000000000    0.6328700000000000 O
   0.2597250000000000    0.1413210000000000    0.3671300000000000 O
   0.7335310000000000    0.2815870000000000    0.6199190000000000 O
   0.2664690000000000    0.7184130000000000    0.3800810000000000 O
   0.7118390000000000    0.7771270000000000    0.0996020000000000 O
   0.2881610000000000    0.2228730000000000    0.9003980000000000 O
   0.7109780000000000    0.8944170000000000    0.8852120000000000 O
   0.2890220000000000    0.1055830000000000    0.1147880000000000 O
   0.6560090000000000    0.6521510000000000    0.2522140000000000 O
   0.3439910000000000    0.3478490000000000    0.7477860000000000 O
   0.5627860000000000    0.2376950000000000    0.8349750000000000 O
   0.4372140000000000    0.7623050000000000    0.1650250000000000 O
   0.5508090000000000    0.7173810000000000    0.6765440000000000 O
   0.4491910000000000    0.2826190000000000    0.3234560000000000 O
   0.5475650000000000    0.7020780000000000    0.4196600000000000 O
   0.4524350000000000    0.2979220000000000    0.5803400000000000 O
   0.5050230000000000    0.4987370000000000    0.6595310000000000 O
   0.4949770000000000    0.5012630000000000    0.3404690000000000 O
   0.5049620000000000    0.9811230000000000    0.1615210000000000 O
   0.4950380000000000    0.0188770000000000    0.8384790000000000 O
   0.4646900000000000    0.8204460000000000    0.9155260000000000 O
   0.5353100000000000    0.1795540000000000    0.0844740000000000 O
   0.4459640000000000    0.8897690000000000    0.3199330000000000 O
   0.5540360000000000    0.1102310000000000    0.6800670000000000 O
   0.4480480000000000    0.4196640000000000    0.9210760000000000 O
   0.5519520000000000    0.5803370000000000    0.0789240000000000 O
   0.4025580000000000    0.8737100000000000    0.5033500000000000 O
   0.5974420000000000    0.1262900000000000    0.4966500000000000 O
   0.3021510000000000    0.6489990000000000    0.6424029999999999 O
   0.6978490000000001    0.3510010000000000    0.3575970000000000 O
   0.2565160000000000    0.6888450000000000    0.9417660000000000 O
   0.7434840000000000    0.3111550000000000    0.0582340000000000 O
   0.2097320000000000    0.9033470000000000    0.9101480000000000 O
   0.7902680000000000    0.0966530000000000    0.0898520000000000 O
   0.2044670000000000    0.9750470000000000    0.6899700000000000 O
   0.7955330000000000    0.0249530000000000    0.3100300000000000 O
