Li8 Sb8 P8 O40
1.0
   8.3676600000000008    0.0000000000000000    0.0000000000000000
   3.9543189999999999    9.5927410000000002    0.0000000000000000
   4.0444240000000002    0.6227670000000000   10.2713500000000000
Li Sb P O
8 8 8 40
direct
   0.9857290000000000    0.9219020000000000    0.7392860000000000 Li
   0.7652020000000000    0.8198430000000000    0.0173000000000000 Li
   0.2288130000000000    0.2737660000000000    0.6476430000000000 Li
   0.4581000000000000    0.4204160000000000    0.2690910000000000 Li
   0.4718810000000000    0.5281580000000000    0.9095660000000000 Li
   0.7199910000000000    0.6663710000000000    0.5090300000000000 Li
   0.9840160000000000    0.0220960000000000    0.3988730000000000 Li
   0.2069130000000000    0.1706790000000000    0.0217000000000000 Li
   0.0002190000000000    0.9970200000000000    0.0100520000000000 Sb
   0.4908750000000000    0.5002740000000000    0.5092730000000000 Sb
   0.7444229999999999    0.7460750000000000    0.7521760000000000 Sb
   0.6253320000000000    0.1245220000000000    0.6274470000000000 Sb
   0.8730440000000000    0.3738620000000000    0.8796180000000000 Sb
   0.1139360000000000    0.6243710000000000    0.1325610000000000 Sb
   0.3832560000000000    0.8728460000000000    0.3730430000000000 Sb
   0.2451230000000000    0.2468930000000000    0.2596890000000000 Sb
   0.6029560000000000    0.1752110000000000    0.9286480000000000 P
   0.1441990000000000    0.5730740000000000    0.8197420000000000 P
   0.1014410000000000    0.6856000000000000    0.4248690000000000 P
   0.3532150000000000    0.9316740000000000    0.6725430000000000 P
   0.6526780000000000    0.0719760000000000    0.3194920000000000 P
   0.8999260000000000    0.3197890000000000    0.5691470000000000 P
   0.8528440000000000    0.4278950000000000    0.1784820000000000 P
   0.3997100000000000    0.8162530000000000    0.0713390000000000 P
   0.6466750000000000    0.3053910000000000    0.9453970000000000 O
   0.2097800000000000    0.5422470000000000    0.9426900000000000 O
   0.7703290000000000    0.0390930000000000    0.9213160000000000 O
   0.3032970000000000    0.5891720000000000    0.7001160000000000 O
   0.9731940000000000    0.7086500000000000    0.8374500000000000 O
   0.5536470000000000    0.2087650000000000    0.7995940000000000 O
   0.7828560000000000    0.9496360000000000    0.6787710000000000 O
   0.5739290000000000    0.8220950000000000    0.9576789999999999 O
   0.1409220000000000    0.8169870000000000    0.4423370000000000 O
   0.0972140000000000    0.4460990000000000    0.8005730000000000 O
   0.4633960000000000    0.2959760000000000    0.5763590000000000 O
   0.2744990000000000    0.5553430000000000    0.4102310000000000 O
   0.9363980000000000    0.6691900000000000    0.5404780000000000 O
   0.0367530000000000    0.2018450000000000    0.9272880000000000 O
   0.7099480000000000    0.5424520000000000    0.8244680000000000 O
   0.3925860000000000    0.0649930000000000    0.6868350000000000 O
   0.5298760000000000    0.8028530000000000    0.6571030000000000 O
   0.7199830000000000    0.0445320000000000    0.4424200000000000 O
   0.1909170000000000    0.9160080000000000    0.7884230000000000 O
   0.0413880000000000    0.7183200000000000    0.3002300000000000 O
   0.9630580000000000    0.2916010000000000    0.6934760000000000 O
   0.8208100000000000    0.0781460000000000    0.2022140000000000 O
   0.2919970000000000    0.9612000000000001    0.5489740000000000 O
   0.4878480000000000    0.2082090000000000    0.3300770000000000 O
   0.6019949999999999    0.9445990000000000    0.3093100000000000 O
   0.2818120000000000    0.4536880000000000    0.1787060000000000 O
   0.9647080000000000    0.7964110000000000    0.0714220000000000 O
   0.0676920000000000    0.3275700000000000    0.4527940000000000 O
   0.7344300000000000    0.4553940000000000    0.5784470000000000 O
   0.5306360000000000    0.6998470000000000    0.4332310000000000 O
   0.8944360000000000    0.5560960000000000    0.2003750000000000 O
   0.8538110000000000    0.1901790000000000    0.5546800000000000 O
   0.4327860000000000    0.1656190000000000    0.0401890000000000 O
   0.2191310000000000    0.0433210000000000    0.3196850000000000 O
   0.4563470000000000    0.7856310000000000    0.1973870000000000 O
   0.0257210000000000    0.2958360000000000    0.1650200000000000 O
   0.6859740000000000    0.4126920000000000    0.2904860000000000 O
   0.2405720000000000    0.9559740000000000    0.0748460000000000 O
   0.8011720000000000    0.4635270000000000    0.0496650000000000 O
   0.3478570000000000    0.6932230000000000    0.0512620000000000 O
