Li2 As2 H4 O2 F12
1.0
  -3.1516510000000002    3.7918810000000001    5.3666729999999996
   3.1516510000000002   -3.7918810000000001    5.3666729999999996
   3.1516510000000002    3.7918810000000001   -5.3666729999999996
Li As H O F
2 2 4 2 12
direct
   0.5000000000000000    0.0000000000000000    0.0000000000000000 Li
   0.0000000000000000    0.0000000000000000    0.5000000000000000 Li
   0.5000000000000000    0.5000000000000000    0.0000000000000000 As
   0.0000000000000000    0.0000000000000000    0.0000000000000000 As
   0.6775160000000000    0.1909520000000000    0.5134360000000000 H
   0.3224840000000000    0.8090480000000000    0.4865640000000000 H
   0.1775160000000000    0.6640800000000000    0.4865640000000000 H
   0.8224840000000000    0.3359200000000000    0.5134360000000000 H
   0.7500000000000000    0.1685230000000000    0.4185230000000000 O
   0.2500000000000000    0.8314770000000000    0.5814770000000000 O
   0.5329429999999999    0.2581150000000000    0.7251720000000000 F
   0.4670570000000000    0.7418850000000000    0.2748280000000000 F
   0.0329430000000000    0.3077700000000000    0.2748280000000000 F
   0.9670570000000001    0.6922300000000000    0.7251720000000000 F
   0.9497030000000000    0.0768160000000000    0.7961770000000000 F
   0.7193610000000000    0.9231840000000000    0.8728870000000000 F
   0.4497030000000000    0.6535260000000001    0.8728870000000000 F
   0.2193610000000000    0.3464740000000000    0.7961770000000000 F
   0.0502970000000000    0.9231840000000000    0.2038230000000000 F
   0.2806390000000000    0.0768160000000000    0.1271130000000000 F
   0.5502970000000000    0.3464740000000000    0.1271130000000000 F
   0.7806390000000000    0.6535260000000001    0.2038230000000000 F
