Li20 Si4 Pb2 O20
1.0
   3.0568770000000001   15.0337270000000007    0.0000000000000000
  -3.0568770000000001   15.0337270000000007    0.0000000000000000
   0.0000000000000000    0.8705440000000000    5.1017010000000003
Li Si Pb O
20 4 2 20
direct
   0.0866350000000000    0.6497280000000000    0.0337130000000000 Li
   0.9518900000000000    0.4377910000000000    0.2109070000000000 Li
   0.6497280000000000    0.0866350000000000    0.0337130000000000 Li
   0.7306180000000000    0.7306180000000000    0.8636150000000000 Li
   0.7784830000000000    0.3508300000000000    0.7701730000000000 Li
   0.2693820000000000    0.2693820000000000    0.1363850000000000 Li
   0.9133650000000000    0.3502720000000000    0.9662870000000000 Li
   0.8678439999999999    0.8678439999999999    0.4860010000000000 Li
   0.4377910000000000    0.9518900000000000    0.2109070000000000 Li
   0.1321560000000000    0.1321560000000000    0.5139990000000000 Li
   0.6756970000000000    0.6756970000000000    0.5769380000000000 Li
   0.3508300000000000    0.7784830000000000    0.7701730000000000 Li
   0.5077700000000001    0.5077700000000001    0.2402560000000000 Li
   0.0481100000000000    0.5622090000000000    0.7890930000000000 Li
   0.3243030000000000    0.3243030000000000    0.4230620000000000 Li
   0.2215170000000000    0.6491700000000000    0.2298270000000000 Li
   0.6491700000000000    0.2215170000000000    0.2298270000000000 Li
   0.4922300000000000    0.4922300000000000    0.7597440000000000 Li
   0.3502720000000000    0.9133650000000000    0.9662870000000000 Li
   0.5622090000000000    0.0481100000000000    0.7890930000000000 Li
   0.3995340000000000    0.3995340000000000    0.6946420000000000 Si
   0.6004660000000001    0.6004660000000001    0.3053580000000000 Si
   0.2191050000000000    0.2191050000000000    0.6906980000000000 Si
   0.7808950000000000    0.7808950000000000    0.3093020000000000 Si
   0.9614060000000000    0.9614060000000000    0.7888880000000000 Pb
   0.0385940000000000    0.0385940000000000    0.2111120000000000 Pb
   0.4495290000000000    0.4495290000000000    0.5028400000000000 O
   0.4197610000000000    0.9680290000000000    0.8286650000000000 O
   0.7277230000000000    0.7277230000000000    0.2638000000000000 O
   0.4047600000000000    0.4047600000000000    0.0095060000000000 O
   0.7481710000000000    0.2518290000000000    0.0000000000000000 O
   0.9680290000000000    0.4197610000000000    0.8286650000000000 O
   0.2518290000000000    0.7481710000000000    0.0000000000000000 O
   0.5504710000000000    0.5504710000000000    0.4971600000000000 O
   0.7864960000000000    0.7864960000000000    0.6198960000000000 O
   0.5886030000000000    0.1522970000000000    0.6407720000000000 O
   0.8477030000000000    0.4113970000000000    0.3592280000000000 O
   0.0319710000000000    0.5802389999999999    0.1713350000000000 O
   0.1522970000000000    0.5886030000000000    0.6407720000000000 O
   0.2135040000000000    0.2135040000000000    0.3801040000000000 O
   0.4113970000000000    0.8477030000000000    0.3592280000000000 O
   0.2722770000000000    0.2722770000000000    0.7362000000000000 O
   0.9078870000000000    0.9078870000000000    0.1430500000000000 O
   0.5802389999999999    0.0319710000000000    0.1713350000000000 O
   0.5952400000000000    0.5952400000000000    0.9904940000000000 O
   0.0921130000000000    0.0921130000000000    0.8569500000000000 O
