pymatgen with grid density = 1111 / number of atoms
0
Gamma
3 3 2
