pymatgen with grid density = 1578 / number of atoms
0
Gamma
2 2 5
