pymatgen with grid density = 1421 / number of atoms
0
Gamma
4 3 2
