Sr8 Li4 In4 B16 O40
1.0
   5.3081050000000003    0.0000000000000000    0.0000000000000000
   0.0000000000000000   12.8949999999999996    0.0000000000000000
   0.0000000000000000    6.4406330000000001   12.4132709999999999
Sr Li In B O
8 4 4 16 40
direct
   0.3730790000000000    0.3294700000000000    0.3555890000000000 Sr
   0.8730790000000000    0.6705300000000000    0.1444110000000000 Sr
   0.6269210000000000    0.6705300000000000    0.6444110000000000 Sr
   0.1269210000000000    0.3294700000000000    0.8555890000000000 Sr
   0.0756550000000000    0.0249220000000000    0.1240310000000000 Sr
   0.5756550000000000    0.9750780000000000    0.3759690000000000 Sr
   0.4243450000000000    0.0249220000000000    0.6240310000000000 Sr
   0.9243450000000000    0.9750780000000000    0.8759690000000000 Sr
   0.1020070000000000    0.5171880000000000    0.6024610000000000 Li
   0.3979930000000000    0.5171880000000000    0.1024610000000000 Li
   0.8979930000000000    0.4828120000000000    0.3975390000000000 Li
   0.6020070000000000    0.4828120000000000    0.8975390000000000 Li
   0.4275830000000000    0.7473730000000000    0.8845900000000000 In
   0.9275830000000000    0.2526270000000000    0.6154100000000000 In
   0.5724170000000000    0.2526270000000000    0.1154100000000000 In
   0.0724170000000000    0.7473730000000000    0.3845900000000000 In
   0.3623540000000000    0.6069400000000000    0.2898330000000000 B
   0.0973390000000000    0.8523690000000000    0.5535070000000000 B
   0.4026610000000000    0.8523690000000000    0.0535070000000000 B
   0.9026610000000000    0.1476310000000000    0.4464930000000000 B
   0.6376460000000000    0.3930600000000000    0.7101670000000000 B
   0.1376460000000000    0.6069400000000000    0.7898330000000000 B
   0.5973390000000000    0.1476310000000000    0.9464930000000000 B
   0.8623540000000000    0.3930600000000000    0.2101670000000000 B
   0.9201050000000000    0.6239200000000000    0.9495890000000000 B
   0.4201050000000000    0.3760800000000000    0.5504110000000000 B
   0.5798950000000000    0.6239200000000000    0.4495890000000000 B
   0.0798950000000000    0.3760800000000000    0.0504110000000000 B
   0.4351360000000000    0.1431890000000000    0.7685400000000000 B
   0.9351360000000000    0.8568110000000000    0.7314600000000000 B
   0.5648640000000000    0.8568110000000000    0.2314600000000000 B
   0.0648640000000000    0.1431890000000000    0.2685400000000000 B
   0.5837120000000000    0.4266980000000000    0.7859260000000000 O
   0.5704270000000000    0.6089270000000000    0.3554750000000000 O
   0.9295730000000000    0.6089270000000000    0.8554750000000000 O
   0.4295730000000000    0.3910730000000000    0.6445250000000000 O
   0.2064090000000000    0.1342640000000000    0.7273090000000000 O
   0.7064090000000000    0.8657360000000000    0.7726910000000000 O
   0.7935910000000000    0.8657360000000000    0.2726910000000000 O
   0.2935910000000000    0.1342640000000000    0.2273090000000000 O
   0.9162880000000000    0.4266980000000000    0.2859260000000000 O
   0.0704270000000000    0.3910730000000000    0.1445250000000000 O
   0.4162880000000000    0.5733020000000000    0.2140740000000000 O
   0.0837120000000000    0.5733020000000000    0.7140740000000000 O
   0.1539270000000000    0.8759190000000000    0.7735390000000000 O
   0.6539270000000000    0.1240810000000000    0.7264610000000000 O
   0.8460730000000000    0.1240810000000000    0.2264610000000000 O
   0.3460730000000000    0.8759190000000000    0.2735390000000000 O
   0.1867740000000000    0.3878390000000000    0.5035100000000000 O
   0.6867740000000000    0.6121610000000000    0.9964900000000000 O
   0.8132260000000000    0.6121610000000000    0.4964900000000000 O
   0.3132260000000000    0.3878390000000000    0.0035100000000000 O
   0.0328180000000000    0.1572990000000000    0.5275090000000000 O
   0.5328180000000000    0.8427010000000000    0.9724910000000000 O
   0.9671820000000000    0.8427010000000000    0.4724910000000000 O
   0.4671820000000000    0.1572990000000000    0.0275090000000000 O
   0.6241900000000000    0.3619790000000000    0.1929930000000000 O
   0.1241900000000000    0.6380209999999999    0.3070070000000000 O
   0.3758100000000000    0.6380209999999999    0.8070070000000000 O
   0.8758100000000000    0.3619790000000000    0.6929930000000000 O
   0.6535690000000000    0.1267500000000000    0.4450840000000000 O
   0.1535690000000000    0.8732500000000000    0.0549160000000000 O
   0.3464310000000000    0.8732500000000000    0.5549160000000000 O
   0.8464310000000000    0.1267500000000000    0.9450840000000000 O
   0.6256590000000000    0.3495220000000000    0.5063680000000000 O
   0.1256590000000000    0.6504780000000000    0.9936320000000000 O
   0.4273780000000000    0.1580870000000000    0.8621560000000000 O
   0.8743410000000000    0.3495220000000000    0.0063680000000000 O
   0.0726220000000000    0.1580870000000000    0.3621560000000000 O
   0.5726220000000000    0.8419130000000000    0.1378440000000000 O
   0.9273780000000000    0.8419130000000000    0.6378440000000000 O
   0.3743410000000000    0.6504780000000000    0.4936320000000000 O
