pymatgen with grid density = 1007 / number of atoms
0
Monkhorst
4 4 2
