K1 Li1 Al2 Si4 O10 F2
1.0
   4.6179290000000002    2.6682809999999999    0.0000000000000000
  -4.6179290000000002    2.6682809999999999    0.0000000000000000
   0.0000000000000000    1.9691110000000001   10.2036029999999993
K Li Al Si O F
1 1 2 4 10 2
direct
   0.0000000000000000    0.0000000000000000    0.0000000000000000 K
   0.5000000000000000    0.5000000000000000    0.5000000000000000 Li
   0.8302410000000000    0.1697590000000000    0.5000000000000000 Al
   0.1697590000000000    0.8302410000000000    0.5000000000000000 Al
   0.5874100000000000    0.2504250000000000    0.2312670000000000 Si
   0.4125900000000000    0.7495750000000000    0.7687330000000000 Si
   0.7495750000000000    0.4125900000000000    0.7687330000000000 Si
   0.2504250000000000    0.5874100000000000    0.2312670000000000 Si
   0.4296770000000000    0.9415860000000000    0.1683490000000000 O
   0.5703230000000000    0.0584140000000000    0.8316510000000000 O
   0.0584140000000000    0.5703230000000000    0.8316510000000000 O
   0.9415860000000000    0.4296770000000000    0.1683490000000000 O
   0.5374320000000000    0.1746310000000000    0.3962630000000000 O
   0.4625680000000000    0.8253690000000000    0.6037370000000000 O
   0.8253690000000000    0.4625680000000000    0.6037370000000000 O
   0.1746310000000000    0.5374320000000000    0.3962630000000000 O
   0.4545520000000000    0.4545520000000000    0.1748350000000000 O
   0.5454480000000000    0.5454480000000000    0.8251650000000000 O
   0.8862620000000000    0.8862620000000000    0.4084110000000000 F
   0.1137380000000000    0.1137380000000000    0.5915890000000000 F
