pymatgen with grid density = 1288 / number of atoms
0
Gamma
4 2 1
