Li12 Si8 Bi4 O28
1.0
   5.1078609999999998    0.0000000000000000    0.0000000000000000
   0.0000000000000000    9.4460879999999996    0.0000000000000000
   0.0000000000000000    0.0000000000000000   13.2853539999999999
Li Si Bi O
12 8 4 28
direct
   0.0442370000000000    0.3322030000000000    0.0928720000000000 Li
   0.0442370000000000    0.3322030000000000    0.4071280000000000 Li
   0.0510690000000000    0.0161160000000000    0.2500000000000000 Li
   0.4489310000000000    0.5161160000000000    0.2500000000000000 Li
   0.4557630000000000    0.8322030000000000    0.0928720000000000 Li
   0.4557630000000000    0.8322030000000000    0.4071280000000000 Li
   0.5442370000000000    0.1677970000000000    0.5928720000000000 Li
   0.5442370000000000    0.1677970000000000    0.9071280000000000 Li
   0.5510690000000000    0.4838840000000000    0.7500000000000000 Li
   0.9489310000000000    0.9838840000000000    0.7500000000000000 Li
   0.9557630000000000    0.6677970000000000    0.9071280000000000 Li
   0.9557630000000000    0.6677970000000000    0.5928720000000000 Li
   0.0260230000000000    0.3098250000000000    0.6401550000000000 Si
   0.0260230000000000    0.3098250000000000    0.8598450000000000 Si
   0.4739770000000000    0.8098250000000000    0.6401550000000000 Si
   0.4739770000000000    0.8098250000000000    0.8598450000000000 Si
   0.5260230000000000    0.1901750000000000    0.1401550000000000 Si
   0.5260230000000000    0.1901750000000000    0.3598450000000000 Si
   0.9739770000000000    0.6901750000000000    0.1401550000000000 Si
   0.9739770000000000    0.6901750000000000    0.3598450000000000 Si
   0.0000000000000000    0.0000000000000000    0.0000000000000000 Bi
   0.0000000000000000    0.0000000000000000    0.5000000000000000 Bi
   0.5000000000000000    0.5000000000000000    0.5000000000000000 Bi
   0.5000000000000000    0.5000000000000000    0.0000000000000000 Bi
   0.0756320000000000    0.8570030000000000    0.1415570000000000 O
   0.0756320000000000    0.8570030000000000    0.3584430000000000 O
   0.0749650000000000    0.6167890000000000    0.2500000000000000 O
   0.1109360000000000    0.6145050000000000    0.0433130000000000 O
   0.1109360000000000    0.6145050000000000    0.4566870000000000 O
   0.1556310000000000    0.8318890000000000    0.6311830000000000 O
   0.1556310000000000    0.8318890000000000    0.8688170000000000 O
   0.3443690000000000    0.3318890000000000    0.6311830000000000 O
   0.3443690000000000    0.3318890000000000    0.8688170000000000 O
   0.3890640000000000    0.1145050000000000    0.0433130000000000 O
   0.3890640000000000    0.1145050000000000    0.4566870000000000 O
   0.4250350000000000    0.1167890000000000    0.2500000000000000 O
   0.4243680000000000    0.3570030000000000    0.1415570000000000 O
   0.4243680000000000    0.3570030000000000    0.3584430000000000 O
   0.5756320000000000    0.6429970000000000    0.6415570000000000 O
   0.5756320000000000    0.6429970000000000    0.8584430000000000 O
   0.5749649999999999    0.8832110000000000    0.7500000000000000 O
   0.6109360000000000    0.8854950000000000    0.5433130000000000 O
   0.6109360000000000    0.8854950000000000    0.9566870000000000 O
   0.6556310000000000    0.6681110000000000    0.1311830000000000 O
   0.6556310000000000    0.6681110000000000    0.3688170000000000 O
   0.8443690000000000    0.1681110000000000    0.3688170000000000 O
   0.8443690000000000    0.1681110000000000    0.1311830000000000 O
   0.8890640000000000    0.3854950000000000    0.5433130000000000 O
   0.8890640000000000    0.3854950000000000    0.9566870000000000 O
   0.9250350000000001    0.3832110000000000    0.7500000000000000 O
   0.9243680000000000    0.1429970000000000    0.6415570000000000 O
   0.9243680000000000    0.1429970000000000    0.8584430000000000 O
