Cs8 Sr8 Li12 B12 P24 O96
1.0
  12.8783779999999997    0.0000000000000000    0.0000000000000000
   0.0000000000000000   12.8783779999999997    0.0000000000000000
   0.0000000000000000    0.0000000000000000   12.8783779999999997
Cs Sr Li B P O
8 8 12 12 24 96
direct
   0.6486270000000000    0.3513730000000000    0.8513730000000000 Cs
   0.1486270000000000    0.1486270000000000    0.1486270000000000 Cs
   0.8513730000000000    0.6486270000000000    0.3513730000000000 Cs
   0.3513730000000000    0.8513730000000000    0.6486270000000000 Cs
   0.6535600000000000    0.8464400000000000    0.1535600000000000 Cs
   0.8464400000000000    0.1535600000000000    0.6535600000000000 Cs
   0.3464400000000000    0.3464400000000000    0.3464400000000000 Cs
   0.1535600000000000    0.6535600000000000    0.8464400000000000 Cs
   0.5939759999999999    0.5939759999999999    0.5939759999999999 Sr
   0.4060240000000000    0.0939760000000000    0.9060240000000001 Sr
   0.0939760000000000    0.9060240000000001    0.4060240000000000 Sr
   0.9060240000000001    0.4060240000000000    0.0939760000000000 Sr
   0.4298180000000000    0.5701820000000000    0.0701820000000000 Sr
   0.9298180000000000    0.9298180000000000    0.9298180000000000 Sr
   0.0701820000000000    0.4298180000000000    0.5701820000000000 Sr
   0.5701820000000000    0.0701820000000000    0.4298180000000000 Sr
   0.6954000000000000    0.5611980000000000    0.0976780000000000 Li
   0.9023220000000000    0.1954000000000000    0.9388020000000000 Li
   0.0611980000000000    0.4023220000000000    0.3046000000000000 Li
   0.1954000000000000    0.9388020000000000    0.9023220000000000 Li
   0.4023220000000000    0.3046000000000000    0.0611980000000000 Li
   0.5611980000000000    0.0976780000000000    0.6954000000000000 Li
   0.3046000000000000    0.0611980000000000    0.4023220000000000 Li
   0.0976780000000000    0.6954000000000000    0.5611980000000000 Li
   0.9388020000000000    0.9023220000000000    0.1954000000000000 Li
   0.8046000000000000    0.4388020000000000    0.5976780000000000 Li
   0.5976780000000000    0.8046000000000000    0.4388020000000000 Li
   0.4388020000000000    0.5976780000000000    0.8046000000000000 Li
   0.6461110000000000    0.1330600000000000    0.1211110000000000 B
   0.8788890000000000    0.1461110000000000    0.3669400000000000 B
   0.6330600000000000    0.3788890000000000    0.3538890000000000 B
   0.1461110000000000    0.3669400000000000    0.8788890000000000 B
   0.3788890000000000    0.3538890000000000    0.6330600000000000 B
   0.1330600000000000    0.1211110000000000    0.6461110000000000 B
   0.3538890000000000    0.6330600000000000    0.3788890000000000 B
   0.1211110000000000    0.6461110000000000    0.1330600000000000 B
   0.3669400000000000    0.8788890000000000    0.1461110000000000 B
   0.8538890000000000    0.8669400000000000    0.6211110000000000 B
   0.6211110000000000    0.8538890000000000    0.8669400000000000 B
   0.8669400000000000    0.6211110000000000    0.8538890000000000 B
   0.9453819999999999    0.4164880000000000    0.8175970000000000 P
   0.1824030000000000    0.4453820000000000    0.0835120000000000 P
   0.9164880000000000    0.6824030000000000    0.0546180000000000 P
   0.4453820000000000    0.0835120000000000    0.1824030000000000 P
   0.6824030000000000    0.0546180000000000    0.9164880000000000 P
   0.4164880000000000    0.8175970000000000    0.9453819999999999 P
   0.0546180000000000    0.9164880000000000    0.6824030000000000 P
   0.8175970000000000    0.9453819999999999    0.4164880000000000 P
   0.0835120000000000    0.1824030000000000    0.4453820000000000 P
   0.5546180000000001    0.5835120000000000    0.3175970000000000 P
   0.3175970000000000    0.5546180000000001    0.5835120000000000 P
   0.5835120000000000    0.3175970000000000    0.5546180000000001 P
   0.6192620000000000    0.3472900000000000    0.1380660000000000 P
   0.8619340000000000    0.1192620000000000    0.1527100000000000 P
   0.8472900000000000    0.3619340000000000    0.3807380000000000 P
   0.1192620000000000    0.1527100000000000    0.8619340000000000 P
   0.3619340000000000    0.3807380000000000    0.8472900000000000 P
   0.3472900000000000    0.1380660000000000    0.6192620000000000 P
   0.3807380000000000    0.8472900000000000    0.3619340000000000 P
   0.1380660000000000    0.6192620000000000    0.3472900000000000 P
   0.1527100000000000    0.8619340000000000    0.1192620000000000 P
   0.8807380000000000    0.6527100000000000    0.6380660000000000 P
   0.6380660000000000    0.8807380000000000    0.6527100000000000 P
   0.6527100000000000    0.6380660000000000    0.8807380000000000 P
   0.6024290000000000    0.5985260000000000    0.2108750000000000 O
   0.7891250000000000    0.1024290000000000    0.9014740000000000 O
   0.0985260000000000    0.2891250000000000    0.3975710000000000 O
   0.1024290000000000    0.9014740000000000    0.7891250000000000 O
   0.2891250000000000    0.3975710000000000    0.0985260000000000 O
   0.5985260000000000    0.2108750000000000    0.6024290000000000 O
   0.3975710000000000    0.0985260000000000    0.2891250000000000 O
   0.2108750000000000    0.6024290000000000    0.5985260000000000 O
   0.9014740000000000    0.7891250000000000    0.1024290000000000 O
   0.8975710000000000    0.4014740000000000    0.7108750000000000 O
   0.7108750000000000    0.8975710000000000    0.4014740000000000 O
   0.4014740000000000    0.7108750000000000    0.8975710000000000 O
   0.0668410000000000    0.4011760000000000    0.8010020000000000 O
   0.1989980000000000    0.5668410000000000    0.0988240000000000 O
   0.9011760000000000    0.6989980000000000    0.9331590000000000 O
   0.5668410000000000    0.0988240000000000    0.1989980000000000 O
   0.6989980000000000    0.9331590000000000    0.9011760000000000 O
   0.4011760000000000    0.8010020000000000    0.0668410000000000 O
   0.9331590000000000    0.9011760000000000    0.6989980000000000 O
   0.8010020000000000    0.0668410000000000    0.4011760000000000 O
   0.0988240000000000    0.1989980000000000    0.5668410000000000 O
   0.4331590000000000    0.5988240000000000    0.3010020000000000 O
   0.3010020000000000    0.4331590000000000    0.5988240000000000 O
   0.5988240000000000    0.3010020000000000    0.4331590000000000 O
   0.7119380000000000    0.4116410000000000    0.1019650000000000 O
   0.8980350000000000    0.2119380000000000    0.0883590000000000 O
   0.9116410000000000    0.3980350000000000    0.2880620000000000 O
   0.2119380000000000    0.0883590000000000    0.8980350000000000 O
   0.3980350000000000    0.2880620000000000    0.9116410000000000 O
   0.4116410000000000    0.1019650000000000    0.7119380000000000 O
   0.2880620000000000    0.9116410000000000    0.3980350000000000 O
   0.1019650000000000    0.7119380000000000    0.4116410000000000 O
   0.0883590000000000    0.8980350000000000    0.2119380000000000 O
   0.7880620000000000    0.5883590000000000    0.6019650000000000 O
   0.6019650000000000    0.7880620000000000    0.5883590000000000 O
   0.5883590000000000    0.6019650000000000    0.7880620000000000 O
   0.9393260000000000    0.5319990000000000    0.8592570000000000 O
   0.1407430000000000    0.4393260000000000    0.9680010000000000 O
   0.0319990000000000    0.6407430000000000    0.0606740000000000 O
   0.4393260000000000    0.9680010000000000    0.1407430000000000 O
   0.6407430000000000    0.0606740000000000    0.0319990000000000 O
   0.5319990000000000    0.8592570000000000    0.9393260000000000 O
   0.0606740000000000    0.0319990000000000    0.6407430000000000 O
   0.8592570000000000    0.9393260000000000    0.5319990000000000 O
   0.9680010000000000    0.1407430000000000    0.4393260000000000 O
   0.5606740000000000    0.4680010000000000    0.3592570000000000 O
   0.3592570000000000    0.5606740000000000    0.4680010000000000 O
   0.4680010000000000    0.3592570000000000    0.5606740000000000 O
   0.9023949999999999    0.3448370000000000    0.9018389999999999 O
   0.0981610000000000    0.4023950000000000    0.1551630000000000 O
   0.8448369999999999    0.5981610000000001    0.0976050000000000 O
   0.4023950000000000    0.1551630000000000    0.0981610000000000 O
   0.5981610000000001    0.0976050000000000    0.8448369999999999 O
   0.3448370000000000    0.9018389999999999    0.9023949999999999 O
   0.0976050000000000    0.8448369999999999    0.5981610000000001 O
   0.9018389999999999    0.9023949999999999    0.3448370000000000 O
   0.1551630000000000    0.0981610000000000    0.4023950000000000 O
   0.5976050000000001    0.6551630000000001    0.4018390000000000 O
   0.4018390000000000    0.5976050000000001    0.6551630000000001 O
   0.6551630000000001    0.4018390000000000    0.5976050000000001 O
   0.6255640000000000    0.2381560000000000    0.0820650000000000 O
   0.9179349999999999    0.1255640000000000    0.2618440000000000 O
   0.7381560000000000    0.4179350000000000    0.3744360000000000 O
   0.1255640000000000    0.2618440000000000    0.9179349999999999 O
   0.4179350000000000    0.3744360000000000    0.7381560000000000 O
   0.2381560000000000    0.0820650000000000    0.6255640000000000 O
   0.3744360000000000    0.7381560000000000    0.4179350000000000 O
   0.0820650000000000    0.6255640000000000    0.2381560000000000 O
   0.2618440000000000    0.9179349999999999    0.1255640000000000 O
   0.8744360000000000    0.7618440000000000    0.5820650000000001 O
   0.5820650000000001    0.8744360000000000    0.7618440000000000 O
   0.7618440000000000    0.5820650000000001    0.8744360000000000 O
   0.6242980000000000    0.3212730000000000    0.2565970000000000 O
   0.7434030000000000    0.1242980000000000    0.1787270000000000 O
   0.8212730000000000    0.2434030000000000    0.3757020000000000 O
   0.1242980000000000    0.1787270000000000    0.7434030000000000 O
   0.2434030000000000    0.3757020000000000    0.8212730000000000 O
   0.3212730000000000    0.2565970000000000    0.6242980000000000 O
   0.3757020000000000    0.8212730000000000    0.2434030000000000 O
   0.2565970000000000    0.6242980000000000    0.3212730000000000 O
   0.1787270000000000    0.7434030000000000    0.1242980000000000 O
   0.8757020000000000    0.6787270000000000    0.7565970000000000 O
   0.7565970000000000    0.8757020000000000    0.6787270000000000 O
   0.6787270000000000    0.7565970000000000    0.8757020000000000 O
   0.5145060000000000    0.3954880000000000    0.1097790000000000 O
   0.8902210000000000    0.0145060000000000    0.1045120000000000 O
   0.8954880000000000    0.3902210000000000    0.4854940000000000 O
   0.0145060000000000    0.1045120000000000    0.8902210000000000 O
   0.3902210000000000    0.4854940000000000    0.8954880000000000 O
   0.3954880000000000    0.1097790000000000    0.5145060000000000 O
   0.4854940000000000    0.8954880000000000    0.3902210000000000 O
   0.1097790000000000    0.5145060000000000    0.3954880000000000 O
   0.1045120000000000    0.8902210000000000    0.0145060000000000 O
   0.9854940000000000    0.6045120000000000    0.6097790000000000 O
   0.6097790000000000    0.9854940000000000    0.6045120000000000 O
   0.6045120000000000    0.6097790000000000    0.9854940000000000 O
