K20 Li4 Ge8 O28
1.0
  16.1027500000000003    0.0000000000000000    0.0000000000000000
   0.0000000000000000    6.3256300000000003    0.0000000000000000
   0.0000000000000000    3.5984759999999998   10.1187559999999994
K Li Ge O
20 4 8 28
direct
   0.5676810000000000    0.7530320000000000    0.4171550000000000 K
   0.0676810000000000    0.2469680000000000    0.0828450000000000 K
   0.9434390000000000    0.7397650000000000    0.5795420000000000 K
   0.1645850000000000    0.7002420000000000    0.0861000000000000 K
   0.5565610000000000    0.7397650000000000    0.0795420000000000 K
   0.9323190000000000    0.7530320000000000    0.9171550000000001 K
   0.3354150000000000    0.7002420000000000    0.5861000000000000 K
   0.6645850000000000    0.2997580000000000    0.4139000000000000 K
   0.0565610000000000    0.2602350000000000    0.4204580000000000 K
   0.4323190000000000    0.2469680000000000    0.5828449999999999 K
   0.6536290000000000    0.2192730000000000    0.1102470000000000 K
   0.4434390000000000    0.2602350000000000    0.9204580000000000 K
   0.3463710000000000    0.7807269999999999    0.8897530000000000 K
   0.6317640000000000    0.2292060000000000    0.7661330000000000 K
   0.8682360000000000    0.2292060000000000    0.2661330000000000 K
   0.1536290000000000    0.7807269999999999    0.3897530000000000 K
   0.3682360000000000    0.7707940000000000    0.2338670000000000 K
   0.8354150000000000    0.2997580000000000    0.9139000000000000 K
   0.1317640000000000    0.7707940000000000    0.7338670000000000 K
   0.8463710000000000    0.2192730000000000    0.6102470000000000 K
   0.7198430000000000    0.7035520000000000    0.8962570000000000 Li
   0.2198430000000000    0.2964480000000000    0.6037430000000000 Li
   0.7801570000000000    0.7035520000000000    0.3962570000000000 Li
   0.2801570000000000    0.2964480000000000    0.1037430000000000 Li
   0.9461540000000001    0.7352100000000000    0.2554580000000000 Ge
   0.4461540000000000    0.2647900000000000    0.2445420000000000 Ge
   0.2345920000000000    0.2304410000000000    0.8869520000000000 Ge
   0.0538460000000000    0.2647900000000000    0.7445420000000000 Ge
   0.5538459999999999    0.7352100000000000    0.7554580000000000 Ge
   0.7654080000000000    0.7695590000000000    0.1130480000000000 Ge
   0.7345920000000000    0.7695590000000000    0.6130480000000000 Ge
   0.2654080000000000    0.2304410000000000    0.3869520000000000 Ge
   0.0003340000000000    0.9381090000000000    0.3047980000000000 O
   0.8889270000000000    0.5495139999999999    0.3891510000000000 O
   0.2976150000000000    0.2659550000000000    0.7475640000000000 O
   0.2806580000000000    0.0331170000000000    0.0295940000000000 O
   0.2819000000000000    0.4765630000000000    0.4280600000000000 O
   0.7181000000000000    0.5234370000000000    0.5719400000000000 O
   0.7023850000000000    0.7340449999999999    0.2524360000000000 O
   0.7976150000000000    0.7340449999999999    0.7524360000000000 O
   0.4996660000000000    0.9381090000000000    0.8047980000000000 O
   0.5003339999999999    0.0618910000000000    0.1952020000000000 O
   0.7806580000000000    0.9668830000000000    0.4704060000000000 O
   0.7819000000000000    0.5234370000000000    0.0719400000000000 O
   0.3664470000000000    0.1012630000000000    0.3678110000000000 O
   0.1110730000000000    0.4504860000000000    0.6108490000000000 O
   0.3889270000000000    0.4504860000000000    0.1108490000000000 O
   0.6110730000000000    0.5495139999999999    0.8891510000000000 O
   0.2181000000000000    0.4765630000000000    0.9280600000000000 O
   0.4912420000000000    0.5907370000000000    0.6748830000000000 O
   0.0087580000000000    0.5907370000000000    0.1748830000000000 O
   0.9996660000000001    0.0618910000000000    0.6952020000000000 O
   0.6335530000000000    0.8987370000000000    0.6321890000000000 O
   0.2193420000000000    0.0331170000000000    0.5295940000000000 O
   0.9912420000000000    0.4092630000000000    0.8251170000000000 O
   0.2023850000000000    0.2659550000000000    0.2475640000000000 O
   0.1335530000000000    0.1012630000000000    0.8678110000000000 O
   0.8664470000000000    0.8987370000000000    0.1321890000000000 O
   0.7193420000000000    0.9668830000000000    0.9704060000000000 O
   0.5087580000000000    0.4092630000000000    0.3251170000000000 O
