pymatgen with grid density = 1585 / number of atoms
0
Gamma
1 3 3
