Li24 Tm4 B12 O36
1.0
  16.4668579999999984    0.0000000000000000    0.0000000000000000
   0.0000000000000000    6.6517320000000000    0.0000000000000000
   0.0000000000000000    1.9288570000000000    6.9485570000000001
Li Tm B O
24 4 12 36
direct
   0.9669540000000000    0.9456860000000000    0.1934250000000000 Li
   0.0330460000000000    0.0543140000000000    0.8065750000000000 Li
   0.4669540000000000    0.5543140000000000    0.8065750000000000 Li
   0.5330460000000000    0.4456860000000000    0.1934250000000000 Li
   0.5555520000000000    0.9025640000000000    0.6345769999999999 Li
   0.4444480000000000    0.0974360000000000    0.3654230000000000 Li
   0.0555520000000000    0.5974360000000000    0.3654230000000000 Li
   0.9444480000000000    0.4025640000000000    0.6345769999999999 Li
   0.4735990000000000    0.8275930000000000    0.0437260000000000 Li
   0.5264010000000000    0.1724070000000000    0.9562740000000000 Li
   0.9735990000000000    0.6724070000000000    0.9562740000000000 Li
   0.0264010000000000    0.3275930000000000    0.0437260000000000 Li
   0.7074290000000000    0.8641300000000000    0.7873040000000000 Li
   0.2925710000000000    0.1358700000000000    0.2126960000000000 Li
   0.2074290000000000    0.6358700000000000    0.2126960000000000 Li
   0.7925710000000000    0.3641300000000000    0.7873040000000000 Li
   0.7963130000000000    0.9585340000000000    0.0711410000000000 Li
   0.2036870000000000    0.0414660000000000    0.9288590000000000 Li
   0.2963130000000000    0.5414660000000000    0.9288590000000000 Li
   0.7036870000000000    0.4585340000000000    0.0711410000000000 Li
   0.9942790000000000    0.8214970000000000    0.5740520000000000 Li
   0.0057210000000000    0.1785030000000000    0.4259480000000000 Li
   0.4942790000000000    0.6785030000000000    0.4259480000000000 Li
   0.5057210000000000    0.3214970000000000    0.5740520000000000 Li
   0.6904280000000000    0.6537030000000000    0.4229940000000000 Tm
   0.3095720000000000    0.3462970000000000    0.5770060000000000 Tm
   0.1904280000000000    0.8462970000000000    0.5770060000000000 Tm
   0.8095720000000000    0.1537030000000000    0.4229940000000000 Tm
   0.8790000000000000    0.0018350000000000    0.7862460000000000 B
   0.1210000000000000    0.9981650000000000    0.2137540000000000 B
   0.3790000000000000    0.4981650000000000    0.2137540000000000 B
   0.6210000000000000    0.5018350000000000    0.7862460000000000 B
   0.6176400000000000    0.8124780000000000    0.0626850000000000 B
   0.3823600000000000    0.1875220000000000    0.9373150000000000 B
   0.1176400000000000    0.6875220000000000    0.9373150000000000 B
   0.8823600000000000    0.3124780000000000    0.0626850000000000 B
   0.8641430000000000    0.6619250000000000    0.4169700000000000 B
   0.1358570000000000    0.3380750000000000    0.5830300000000000 B
   0.3641430000000000    0.8380750000000000    0.5830300000000000 B
   0.6358570000000000    0.1619250000000000    0.4169700000000000 B
   0.9466270000000000    0.6758360000000000    0.4095990000000000 O
   0.0533730000000000    0.3241640000000000    0.5904010000000000 O
   0.4466270000000000    0.8241640000000000    0.5904010000000000 O
   0.5533730000000000    0.1758360000000000    0.4095990000000000 O
   0.7008460000000000    0.7716540000000000    0.0844800000000000 O
   0.2991540000000000    0.2283460000000000    0.9155200000000000 O
   0.2008460000000000    0.7283460000000000    0.9155200000000000 O
   0.7991540000000000    0.2716540000000000    0.0844800000000000 O
   0.8135420000000000    0.8360660000000000    0.3632050000000000 O
   0.1864580000000000    0.1639340000000000    0.6367950000000000 O
   0.3135420000000000    0.6639340000000000    0.6367950000000000 O
   0.6864580000000000    0.3360660000000000    0.3632050000000000 O
   0.5707810000000000    0.7280910000000000    0.2261850000000000 O
   0.4292190000000000    0.2719090000000000    0.7738150000000000 O
   0.0707810000000000    0.7719090000000000    0.7738150000000000 O
   0.9292190000000000    0.2280910000000000    0.2261850000000000 O
   0.4129580000000000    0.5849680000000000    0.0370740000000000 O
   0.5870420000000000    0.4150320000000000    0.9629259999999999 O
   0.9129580000000000    0.9150320000000000    0.9629259999999999 O
   0.0870420000000000    0.0849680000000000    0.0370740000000000 O
   0.5814340000000000    0.9243410000000000    0.8945520000000000 O
   0.4185660000000000    0.0756590000000000    0.1054480000000000 O
   0.0814340000000000    0.5756590000000000    0.1054480000000000 O
   0.9185660000000000    0.4243410000000000    0.8945520000000000 O
   0.4253800000000000    0.4531690000000000    0.3817290000000000 O
   0.5746200000000000    0.5468310000000000    0.6182710000000000 O
   0.9253800000000000    0.0468310000000000    0.6182710000000000 O
   0.0746200000000000    0.9531690000000000    0.3817290000000000 O
   0.6747410000000000    0.9693100000000000    0.4892410000000000 O
   0.3252590000000000    0.0306900000000000    0.5107590000000000 O
   0.1747410000000000    0.5306900000000000    0.5107590000000000 O
   0.8252590000000000    0.4693100000000000    0.4892410000000000 O
   0.2025820000000000    0.9415950000000000    0.2397670000000000 O
   0.7974180000000000    0.0584050000000000    0.7602330000000000 O
   0.7025820000000000    0.5584050000000000    0.7602330000000000 O
   0.2974180000000000    0.4415950000000000    0.2397670000000000 O
