pymatgen with grid density = 1289 / number of atoms
0
Gamma
1 3 2
