Li4 Tb24 B12 O56
1.0
  15.6599789999999999    0.0000000000000000    0.0000000000000000
   0.0000000000000000    8.4577500000000008    0.0000000000000000
   0.0000000000000000    8.1469170000000002    8.9250749999999996
Li Tb B O
4 24 12 56
direct
   0.6038430000000000    0.8801580000000000    0.4396160000000000 Li
   0.3961570000000000    0.1198420000000000    0.5603840000000000 Li
   0.1038430000000000    0.1198420000000000    0.0603840000000000 Li
   0.8961570000000000    0.8801580000000000    0.9396160000000000 Li
   0.8220410000000000    0.5510330000000000    0.3067690000000000 Tb
   0.1779590000000000    0.4489670000000000    0.6932310000000000 Tb
   0.3220410000000000    0.4489670000000000    0.1932310000000000 Tb
   0.6779590000000000    0.5510330000000000    0.8067690000000000 Tb
   0.3255180000000000    0.9851210000000000    0.0549010000000000 Tb
   0.6744820000000000    0.0148790000000000    0.9450990000000000 Tb
   0.8255180000000000    0.0148790000000000    0.4450990000000000 Tb
   0.1744820000000000    0.9851210000000000    0.5549010000000000 Tb
   0.3561760000000000    0.8482410000000000    0.4242880000000000 Tb
   0.6438240000000000    0.1517590000000000    0.5757120000000000 Tb
   0.8561760000000000    0.1517590000000000    0.0757120000000000 Tb
   0.1438240000000000    0.8482410000000000    0.9242880000000000 Tb
   0.5134919999999999    0.6654960000000000    0.2827160000000000 Tb
   0.4865080000000000    0.3345040000000000    0.7172840000000000 Tb
   0.0134920000000000    0.3345040000000000    0.2172840000000000 Tb
   0.9865080000000001    0.6654960000000000    0.7827160000000000 Tb
   0.5040850000000000    0.2383400000000000    0.0615100000000000 Tb
   0.4959150000000000    0.7616600000000000    0.9384900000000000 Tb
   0.0040850000000000    0.7616600000000000    0.4384900000000000 Tb
   0.9959150000000000    0.2383400000000000    0.5615100000000000 Tb
   0.6658940000000000    0.4120730000000000    0.1660400000000000 Tb
   0.3341060000000000    0.5879270000000000    0.8339600000000000 Tb
   0.1658940000000000    0.5879270000000000    0.3339600000000000 Tb
   0.8341060000000000    0.4120730000000000    0.6660400000000000 Tb
   0.8269430000000000    0.5442420000000000    0.0270730000000000 B
   0.1730570000000000    0.4557580000000000    0.9729270000000000 B
   0.3269430000000000    0.4557580000000000    0.4729270000000000 B
   0.6730570000000000    0.5442420000000000    0.5270730000000000 B
   0.9993130000000000    0.7913610000000000    0.1447720000000000 B
   0.0006870000000000    0.2086390000000000    0.8552280000000000 B
   0.4993130000000000    0.2086390000000000    0.3552280000000000 B
   0.5006870000000000    0.7913610000000000    0.6447720000000000 B
   0.6931300000000000    0.9582220000000000    0.2214690000000000 B
   0.3068700000000000    0.0417780000000000    0.7785310000000000 B
   0.1931300000000000    0.0417780000000000    0.2785310000000000 B
   0.8068700000000000    0.9582220000000000    0.7214690000000000 B
   0.7511720000000000    0.8829680000000000    0.1777410000000000 O
   0.2488280000000000    0.1170320000000000    0.8222590000000000 O
   0.2511720000000000    0.1170320000000000    0.3222590000000000 O
   0.7488280000000000    0.8829680000000000    0.6777410000000000 O
   0.4668550000000000    0.6968540000000000    0.5940250000000000 O
   0.5331450000000000    0.3031460000000000    0.4059750000000000 O
   0.9668550000000000    0.3031460000000000    0.9059750000000000 O
   0.0331450000000000    0.6968540000000000    0.0940250000000000 O
   0.4207850000000000    0.9346500000000000    0.2207660000000000 O
   0.5792150000000000    0.0653500000000000    0.7792340000000000 O
   0.9207850000000000    0.0653500000000000    0.2792340000000000 O
   0.0792150000000000    0.9346500000000000    0.7207660000000000 O
   0.9147189999999999    0.8531990000000000    0.1179580000000000 O
   0.0852810000000000    0.1468010000000000    0.8820420000000000 O
   0.4147190000000000    0.1468010000000000    0.3820420000000000 O
   0.5852810000000001    0.8531990000000000    0.6179580000000000 O
   0.9121040000000000    0.5248050000000000    0.0093630000000000 O
   0.0878960000000000    0.4751950000000000    0.9906370000000000 O
   0.4121040000000000    0.4751950000000000    0.4906370000000000 O
   0.5878960000000000    0.5248050000000000    0.5093630000000000 O
   0.7956520000000000    0.6413660000000000    0.0755980000000000 O
   0.2043480000000000    0.3586340000000000    0.9244019999999999 O
   0.2956520000000000    0.3586340000000000    0.4244020000000000 O
   0.7043480000000000    0.6413660000000000    0.5755980000000001 O
   0.4488050000000000    0.8227190000000000    0.7206720000000000 O
   0.5511950000000000    0.1772810000000000    0.2793280000000000 O
   0.9488050000000000    0.1772810000000000    0.7793280000000000 O
   0.0511950000000000    0.8227190000000000    0.2206720000000000 O
   0.5981660000000000    0.7019400000000000    0.1055820000000000 O
   0.4018340000000000    0.2980600000000000    0.8944180000000000 O
   0.0981660000000000    0.2980600000000000    0.3944180000000000 O
   0.9018340000000000    0.7019400000000000    0.6055820000000000 O
   0.9105730000000000    0.5273820000000000    0.4638930000000000 O
   0.0894270000000000    0.4726180000000000    0.5361070000000000 O
   0.4105730000000000    0.4726180000000000    0.0361070000000000 O
   0.5894270000000000    0.5273820000000000    0.9638930000000000 O
   0.4144270000000000    0.7139760000000001    0.1238150000000000 O
   0.5855730000000000    0.2860240000000000    0.8761850000000000 O
   0.9144270000000000    0.2860240000000000    0.3761850000000000 O
   0.0855730000000000    0.7139760000000001    0.6238150000000000 O
   0.2319190000000000    0.7237660000000000    0.1217940000000000 O
   0.7680810000000000    0.2762340000000000    0.8782060000000000 O
   0.7319190000000000    0.2762340000000000    0.3782060000000000 O
   0.2680810000000000    0.7237660000000000    0.6217940000000000 O
   0.2250950000000000    0.9464560000000000    0.2285000000000000 O
   0.7749050000000000    0.0535440000000000    0.7715000000000000 O
   0.7250950000000000    0.0535440000000000    0.2715000000000000 O
   0.2749050000000000    0.9464560000000000    0.7285000000000000 O
   0.6069670000000000    0.9478799999999999    0.2008540000000000 O
   0.3930330000000000    0.0521200000000000    0.7991460000000000 O
   0.1069670000000000    0.0521200000000000    0.2991460000000000 O
   0.8930330000000000    0.9478799999999999    0.7008540000000000 O
   0.7677970000000000    0.4475010000000000    0.0034540000000000 O
   0.2322030000000000    0.5524990000000000    0.9965460000000000 O
   0.2677970000000000    0.5524990000000000    0.4965460000000000 O
   0.7322030000000000    0.4475010000000000    0.5034540000000000 O
