Li4 Sn6 P8 O28
1.0
   8.2005850000000002    0.0000000000000000    0.0000000000000000
   0.0000000000000000    8.0033410000000007    0.0000000000000000
   0.0000000000000000    3.6431730000000000   10.5907599999999995
Li Sn P O
4 6 8 28
direct
   0.4344330000000000    0.7060890000000000    0.8213730000000000 Li
   0.0655670000000000    0.7060890000000000    0.3213730000000000 Li
   0.9344330000000000    0.2939110000000000    0.6786270000000000 Li
   0.5655670000000000    0.2939110000000000    0.1786270000000000 Li
   0.0000000000000000    0.0000000000000000    0.5000000000000000 Sn
   0.3775320000000000    0.7879210000000000    0.5040340000000000 Sn
   0.5000000000000000    0.0000000000000000    0.0000000000000000 Sn
   0.1224680000000000    0.7879210000000000    0.0040340000000000 Sn
   0.8775320000000000    0.2120790000000000    0.9959660000000000 Sn
   0.6224680000000000    0.2120790000000000    0.4959660000000000 Sn
   0.7924700000000000    0.8634800000000000    0.8094960000000000 P
   0.7075300000000000    0.8634800000000000    0.3094960000000000 P
   0.0417130000000000    0.6045739999999999    0.7742289999999999 P
   0.5417130000000000    0.3954260000000000    0.7257710000000001 P
   0.4582870000000000    0.6045739999999999    0.2742290000000000 P
   0.9582870000000000    0.3954260000000000    0.2257710000000000 P
   0.2924700000000000    0.1365200000000000    0.6905040000000000 P
   0.2075300000000000    0.1365200000000000    0.1905040000000000 P
   0.2999120000000000    0.0064980000000000    0.8261039999999999 O
   0.9043750000000000    0.9254460000000000    0.8994180000000001 O
   0.6204320000000000    0.8245310000000000    0.8631200000000000 O
   0.2000880000000000    0.0064980000000000    0.3261040000000000 O
   0.5956250000000000    0.9254460000000000    0.3994180000000000 O
   0.8665000000000000    0.6746970000000000    0.8103939999999999 O
   0.1694610000000000    0.6349770000000000    0.8679350000000000 O
   0.8795680000000000    0.8245310000000000    0.3631200000000000 O
   0.0817570000000000    0.7087840000000000    0.6368120000000000 O
   0.5090600000000000    0.5912710000000000    0.7029580000000000 O
   0.6335000000000000    0.6746970000000000    0.3103940000000000 O
   0.3305390000000000    0.6349770000000000    0.3679350000000000 O
   0.4182430000000000    0.7087840000000000    0.1368120000000000 O
   0.0090600000000000    0.4087290000000000    0.7970420000000000 O
   0.9909400000000000    0.5912710000000000    0.2029580000000000 O
   0.5817570000000000    0.2912160000000000    0.8631880000000000 O
   0.6694610000000000    0.3650230000000000    0.6320650000000000 O
   0.3665000000000000    0.3253030000000000    0.6896060000000001 O
   0.4909400000000000    0.4087290000000000    0.2970420000000000 O
   0.9182430000000000    0.2912160000000000    0.3631880000000000 O
   0.1204320000000000    0.1754690000000000    0.6368800000000000 O
   0.8305390000000000    0.3650230000000000    0.1320650000000000 O
   0.1335000000000000    0.3253030000000000    0.1896060000000000 O
   0.4043750000000000    0.0745540000000000    0.6005819999999999 O
   0.7999120000000000    0.9935020000000000    0.6738960000000001 O
   0.3795680000000000    0.1754690000000000    0.1368800000000000 O
   0.0956250000000000    0.0745540000000000    0.1005820000000000 O
   0.7000880000000000    0.9935020000000000    0.1738960000000000 O
