pymatgen with grid density = 1375 / number of atoms
0
Gamma
4 2 1
