pymatgen with grid density = 986 / number of atoms
0
Gamma
4 2 1
