Rb20 Li20 S20 O80
1.0
   5.3239853400000001    0.0000000000000000    0.0042868100000000
   0.0000000000000000    9.5626951200000008    0.0000000000000000
   0.0483435300000000    0.0000000000000000   44.2829395799999972
Rb Li S O
20 20 20 80
direct
   0.2764832900000000    0.7575018300000000    0.6008784100000000 Rb
   0.7764832900000000    0.2424981700000000    0.1008784100000000 Rb
   0.2349153600000000    0.7468402400000000    0.7001489500000000 Rb
   0.7349153600000000    0.2531597600000000    0.2001489500000000 Rb
   0.2744023900000000    0.7571262300000000    0.8000189400000000 Rb
   0.7744023900000000    0.2428737700000000    0.3000189400000000 Rb
   0.2771508300000000    0.7411851800000000    0.9008514700000000 Rb
   0.7771508300000000    0.2588148200000000    0.4008514700000000 Rb
   0.2296762000000000    0.7541236700000000    0.0006747400000000 Rb
   0.7296762000000000    0.2458763300000000    0.5006747400000000 Rb
   0.2262543300000000    0.7416704400000000    0.0999444800000000 Rb
   0.7262543299999999    0.2583295600000000    0.5999444800000000 Rb
   0.2698473200000000    0.7557191300000000    0.1998830700000000 Rb
   0.7698473200000000    0.2442808700000000    0.6998830700000001 Rb
   0.2300254200000000    0.7435968600000000    0.3003265200000000 Rb
   0.7300254200000000    0.2564031400000000    0.8003265200000000 Rb
   0.2301363000000000    0.7573571700000000    0.3997336300000000 Rb
   0.7301363000000000    0.2426428300000000    0.8997336300000000 Rb
   0.2737709500000000    0.7437224400000000    0.4997926700000000 Rb
   0.7737709500000000    0.2562775600000000    0.9997926700000000 Rb
   0.7239149800000000    0.5858803000000000    0.5639939500000000 Li
   0.2239149800000000    0.4141197000000000    0.0639939500000000 Li
   0.7174023400000000    0.9145811300000000    0.6641675700000000 Li
   0.2174023400000000    0.0854188700000000    0.1641675700000000 Li
   0.7896396000000000    0.5859004700000000    0.7637669200000000 Li
   0.2896396000000000    0.4140995300000000    0.2637669200000000 Li
   0.7264242400000001    0.9146776500000000    0.8641706700000000 Li
   0.2264242400000000    0.0853223500000000    0.3641706700000000 Li
   0.7121494300000000    0.5862696400000000    0.9640921900000000 Li
   0.2121494300000000    0.4137303600000000    0.4640921900000000 Li
   0.7750832500000000    0.9174767000000000    0.0640107000000000 Li
   0.2750832500000000    0.0825233000000000    0.5640107000000000 Li
   0.7888079400000000    0.5846926099999999    0.1641568100000000 Li
   0.2888079400000000    0.4153073900000000    0.6641568100000000 Li
   0.7165515200000000    0.9117730400000000    0.2642674000000000 Li
   0.2165515200000000    0.0882269600000000    0.7642674000000000 Li
   0.7761468500000001    0.5840400500000000    0.3641764700000000 Li
   0.2761468500000000    0.4159599500000000    0.8641764700000000 Li
   0.7887868600000000    0.9169646100000000    0.4640649100000000 Li
   0.2887868600000000    0.0830353900000000    0.9640649100000001 Li
   0.7789844500000001    0.9178553000000000    0.5416228100000000 S
   0.2789844500000000    0.0821447000000000    0.0416228100000000 S
   0.7854176400000000    0.5824968200000000    0.6415374700000001 S
   0.2854176400000000    0.4175031800000000    0.1415374700000000 S
   0.7204625400000000    0.9209835100000000    0.7417457100000000 S
   0.2204625400000000    0.0790164900000000    0.2417457100000000 S
   0.7798092500000000    0.5823784600000000    0.8415924000000000 S
   0.2798092500000000    0.4176215400000000    0.3415924000000000 S
   0.7839534300000000    0.9170922600000000    0.9415519600000000 S
   0.2839534300000000    0.0829077400000000    0.4415519600000000 S
   0.7192319100000000    0.5813757100000000    0.0416115300000000 S
   0.2192319100000000    0.4186242900000000    0.5416115300000000 S
   0.7178562000000001    0.9180260500000000    0.1415380100000000 S
   0.2178562000000000    0.0819739500000000    0.6415380100000000 S
   0.7832286100000000    0.5803634600000001    0.2417500000000000 S
   0.2832286100000000    0.4196365400000000    0.7417500000000000 S
   0.7216502700000000    0.9187303300000000    0.3419172400000000 S
   0.2216502700000000    0.0812696700000000    0.8419172400000000 S
   0.7139931200000000    0.5824001800000000    0.4416901000000000 S
   0.2139931200000000    0.4175998200000000    0.9416901000000000 S
   0.7681958100000000    0.9180279600000000    0.5080602400000001 O
   0.2681958100000000    0.0819720400000000    0.0080602400000000 O
   0.7753233600000000    0.5946212700000000    0.6080273600000000 O
   0.2753233600000000    0.4053787300000000    0.1080273600000000 O
   0.7473003900000000    0.9075198500000000    0.7083089200000000 O
   0.2473003900000000    0.0924801500000000    0.2083089200000000 O
   0.7706748700000000    0.5840366700000000    0.8079033400000000 O
   0.2706748700000000    0.4159633300000000    0.3079033400000000 O
   0.7760986100000000    0.9013492500000000    0.9080429200000000 O
   0.2760986100000000    0.0986507500000000    0.4080429200000000 O
   0.7503321100000000    0.5822177200000000    0.0081696300000000 O
   0.2503321100000000    0.4177822800000000    0.5081696300000000 O
   0.7370478900000000    0.9083143700000000    0.1080263000000000 O
   0.2370478900000000    0.0916856300000000    0.6080263000000000 O
   0.7643737400000000    0.5975631600000000    0.2083519300000000 O
   0.2643737400000000    0.4024368400000000    0.7083519300000000 O
   0.7513667700000000    0.9193267600000000    0.3083570300000000 O
   0.2513667700000000    0.0806732400000000    0.8083570300000000 O
   0.7442432400000000    0.5977177100000000    0.4083330800000000 O
   0.2442432400000000    0.4022822900000000    0.9083330800000000 O
   0.6809767700000000    0.7823438300000000    0.5532049400000000 O
   0.1809767700000000    0.2176561700000000    0.0532049400000000 O
   0.6918460300000000    0.7143403900000000    0.6554377100000000 O
   0.1918460300000000    0.2856596100000000    0.1554377100000000 O
   0.8024924600000000    0.7887951600000001    0.7564351600000000 O
   0.3024924600000000    0.2112048400000000    0.2564351600000000 O
   0.6850942600000000    0.7182353000000000    0.8533096999999999 O
   0.1850942600000000    0.2817647000000000    0.3533097000000000 O
   0.6853154400000000    0.7876980300000000    0.9559911800000001 O
   0.1853154400000000    0.2123019700000000    0.4559911800000000 O
   0.8007896100000000    0.7188355200000000    0.0540141500000000 O
   0.3007896100000000    0.2811644800000000    0.5540141500000000 O
   0.8048036400000000    0.7846965400000000    0.1552666200000000 O
   0.3048036400000000    0.2153034600000000    0.6552666200000000 O
   0.6927915400000000    0.7096699800000000    0.2569297300000000 O
   0.1927915400000000    0.2903300200000000    0.7569297300000000 O
   0.8066387900000000    0.7815831300000000    0.3539658200000000 O
   0.3066387900000000    0.2184168700000000    0.8539658200000000 O
   0.7907698700000000    0.7145301700000000    0.4568326500000000 O
   0.2907698700000000    0.2854698300000000    0.9568326500000000 O
   0.0452283800000000    0.9363215100000000    0.5513630600000000 O
   0.5452283800000000    0.0636784900000000    0.0513630600000000 O
   0.0511432000000000    0.5580835100000000    0.6509313799999999 O
   0.5511432000000001    0.4419164900000000    0.1509313800000000 O
   0.8763605700000000    0.0403456000000000    0.7523833300000000 O
   0.3763605700000000    0.9596544000000000    0.2523833300000000 O
   0.0448563400000000    0.5611626600000000    0.8514442100000000 O
   0.5448563400000001    0.4388373400000000    0.3514442100000000 O
   0.0496690000000000    0.9401109900000000    0.9510252000000000 O
   0.5496690000000000    0.0598890100000000    0.4510252000000000 O
   0.8743608899999999    0.4669564600000000    0.0547095400000000 O
   0.3743608900000000    0.5330435400000000    0.5547095399999999 O
   0.8748470400000000    0.0366621200000000    0.1524210800000000 O
   0.3748470400000000    0.9633378800000000    0.6524210800000000 O
   0.0511921100000000    0.5548313300000000    0.2499837700000000 O
   0.5511921100000000    0.4451686700000000    0.7499837700000000 O
   0.8748735600000001    0.0336852400000000    0.3550447400000000 O
   0.3748735600000000    0.9663147600000001    0.8550447400000000 O
   0.8710261700000000    0.4638289700000000    0.4524686100000000 O
   0.3710261700000000    0.5361710300000000    0.9524686100000000 O
   0.6228182300000000    0.0353223400000000    0.5534778000000000 O
   0.1228182300000000    0.9646776600000000    0.0534778000000000 O
   0.6273505400000000    0.4623144900000000    0.6514717100000000 O
   0.1273505400000000    0.5376855100000000    0.1514717100000000 O
   0.4511391400000000    0.9480599600000000    0.7492350700000000 O
   0.9511391400000000    0.0519400400000000    0.2492350700000000 O
   0.6203401700000000    0.4657981300000000    0.8530007500000000 O
   0.1203401700000000    0.5342018700000000    0.3530007500000000 O
   0.6284770000000000    0.0398109900000000    0.9506406200000000 O
   0.1284770000000000    0.9601890100000000    0.4506406200000000 O
   0.4488397600000000    0.5580596799999999    0.0491315800000000 O
   0.9488397600000000    0.4419403200000000    0.5491315800000000 O
   0.4498558600000000    0.9431114300000000    0.1500203600000000 O
   0.9498558600000000    0.0568885700000000    0.6500203600000000 O
   0.6282489900000000    0.4582290700000000    0.2512458300000000 O
   0.1282489900000000    0.5417709300000000    0.7512458300000000 O
   0.4510199500000000    0.9400952500000000    0.3495702700000000 O
   0.9510199499999999    0.0599047500000000    0.8495702700000000 O
   0.4442211000000000    0.5534037200000000    0.4485849600000000 O
   0.9442211000000000    0.4465962800000000    0.9485849600000000 O
