Li1 B1 H16 O10
1.0
   0.0529600000000000    0.0482820000000000   -6.0167570000000001
  -6.4988900000000003   -0.0628140000000000    0.0575250000000000
  -3.1995000000000000    5.8133480000000004   -0.0131100000000000
Li B H O
1 1 16 10
direct
   0.7156100000000000    0.6766870000000000    0.6631730000000000 Li
   0.2920570000000000    0.3460360000000000    0.3351610000000000 B
   0.4441950000000000    0.0044250000000000    0.0138910000000000 H
   0.2239170000000000    0.6895970000000000    0.2499180000000000 H
   0.2929300000000000    0.9874010000000000    0.5485920000000000 H
   0.2138430000000000    0.2523740000000000    0.0871520000000000 H
   0.9565590000000000    0.4470270000000000    0.5297720000000000 H
   0.9548970000000000    0.0418910000000000    0.4415340000000000 H
   0.9571750000000000    0.5530160000000000    0.0231170000000000 H
   0.6101510000000000    0.4517820000000000    0.1844600000000000 H
   0.7010130000000000    0.3842930000000000    0.5138250000000000 H
   0.7006090000000000    0.1080440000000000    0.3856040000000000 H
   0.2224610000000000    0.0289180000000000    0.8802710000000000 H
   0.8048600000000000    0.7754030000000000    0.9784760000000000 H
   0.7785470000000000    0.1635860000000000    0.8620870000000000 H
   0.7839520000000000    0.0112720000000000    0.1406280000000000 H
   0.3212620000000000    0.5826660000000000    0.8340020000000000 H
   0.3202600000000000    0.6091820000000000    0.5813590000000000 H
   0.2778690000000000    0.9925900000000000    0.0323200000000000 O
   0.3864870000000000    0.6757870000000000    0.6765820000000000 O
   0.7300070000000000    0.0130340000000000    0.9969270000000000 O
   0.5407780000000000    0.3370710000000000    0.3322070000000000 O
   0.8118970000000000    0.6296830000000000    0.9629290000000000 O
   0.8094479999999999    0.4148770000000000    0.6120409999999999 O
   0.8108800000000000    0.9852649999999999    0.4073720000000000 O
   0.2043840000000000    0.3943310000000000    0.1051670000000000 O
   0.2111190000000000    0.5324260000000000    0.3840960000000000 O
   0.2044320000000000    0.1243370000000000    0.5213350000000000 O
