Li8 Cd4 P16 O48
1.0
   9.5282959999999992    0.0000000000000000    0.0000000000000000
   0.0000000000000000    9.6555750000000007    0.0000000000000000
   0.0000000000000000    0.0000000000000000   10.3342080000000003
Li Cd P O
8 4 16 48
direct
   0.1052900000000000    0.4972610000000000    0.3233600000000000 Li
   0.8947100000000000    0.5027390000000000    0.6766400000000000 Li
   0.8947100000000000    0.0027390000000000    0.8233600000000000 Li
   0.1052900000000000    0.9972610000000000    0.1766400000000000 Li
   0.3947100000000000    0.9972610000000000    0.1766400000000000 Li
   0.6052900000000000    0.0027390000000000    0.8233600000000000 Li
   0.6052900000000000    0.5027390000000000    0.6766400000000000 Li
   0.3947100000000000    0.4972610000000000    0.3233600000000000 Li
   0.2500000000000000    0.4884630000000000    0.6936310000000000 Cd
   0.7500000000000000    0.5115370000000000    0.3063690000000000 Cd
   0.2500000000000000    0.9884630000000000    0.8063690000000000 Cd
   0.7500000000000000    0.0115370000000000    0.1936310000000000 Cd
   0.7500000000000000    0.3038220000000000    0.9000040000000000 P
   0.5315310000000000    0.7929120000000000    0.3880620000000000 P
   0.4684690000000000    0.7070880000000000    0.8880620000000000 P
   0.7500000000000000    0.8038220000000000    0.5999960000000000 P
   0.7500000000000000    0.2301200000000000    0.4846810000000000 P
   0.2500000000000000    0.2698800000000000    0.9846810000000000 P
   0.2500000000000000    0.6961780000000000    0.0999960000000000 P
   0.5315310000000000    0.2929120000000000    0.1119380000000000 P
   0.9684690000000000    0.2929120000000000    0.1119380000000000 P
   0.2500000000000000    0.7698800000000000    0.5153190000000000 P
   0.0315310000000000    0.7070880000000000    0.8880620000000000 P
   0.7500000000000000    0.7301200000000000    0.0153190000000000 P
   0.0315310000000000    0.2070880000000000    0.6119380000000000 P
   0.4684690000000000    0.2070880000000000    0.6119380000000000 P
   0.9684690000000000    0.7929120000000000    0.3880620000000000 P
   0.2500000000000000    0.1961780000000000    0.4000040000000000 P
   0.3749860000000000    0.8314380000000000    0.4283490000000000 O
   0.3749860000000000    0.3314380000000000    0.0716510000000000 O
   0.2500000000000000    0.6134620000000000    0.5080850000000000 O
   0.5597560000000000    0.8844200000000000    0.2728220000000000 O
   0.7500000000000000    0.8865380000000000    0.0080850000000000 O
   0.4515830000000000    0.3620660000000000    0.6230430000000000 O
   0.4515830000000000    0.8620660000000000    0.8769570000000000 O
   0.7500000000000000    0.8994110000000000    0.7141670000000000 O
   0.8749860000000000    0.6685620000000000    0.9283490000000000 O
   0.9515830000000000    0.6379340000000000    0.3769570000000000 O
   0.8816780000000000    0.8501260000000000    0.5106900000000000 O
   0.7500000000000000    0.1618930000000000    0.3560800000000000 O
   0.0484170000000000    0.3620660000000000    0.6230430000000000 O
   0.0597560000000000    0.6155800000000000    0.7728220000000000 O
   0.0484170000000000    0.8620660000000000    0.8769570000000000 O
   0.2500000000000000    0.3381070000000000    0.8560800000000000 O
   0.6250140000000000    0.6685620000000000    0.9283490000000000 O
   0.0597560000000000    0.1155800000000000    0.7271780000000000 O
   0.7500000000000000    0.3865380000000000    0.4919150000000000 O
   0.1183220000000000    0.1498740000000000    0.4893100000000000 O
   0.1250140000000000    0.3314380000000000    0.0716510000000000 O
   0.9402440000000000    0.3844200000000000    0.2271780000000000 O
   0.6250140000000000    0.1685620000000000    0.5716510000000000 O
   0.2500000000000000    0.1005890000000000    0.2858330000000000 O
   0.3816780000000000    0.6498740000000000    0.0106900000000000 O
   0.9515830000000000    0.1379340000000000    0.1230430000000000 O
   0.8816780000000000    0.3501260000000000    0.9893100000000000 O
   0.7500000000000000    0.6499430000000000    0.6204030000000000 O
   0.5597560000000000    0.3844200000000000    0.2271780000000000 O
   0.9402440000000000    0.8844200000000000    0.2728220000000000 O
   0.2500000000000000    0.8381070000000000    0.6439200000000000 O
   0.2500000000000000    0.6005890000000000    0.2141670000000000 O
   0.5484170000000000    0.6379340000000000    0.3769570000000000 O
   0.3816780000000000    0.1498740000000000    0.4893100000000000 O
   0.2500000000000000    0.1134620000000000    0.9919150000000000 O
   0.1250140000000000    0.8314380000000000    0.4283490000000000 O
   0.7500000000000000    0.6618930000000000    0.1439200000000000 O
   0.4402440000000000    0.1155800000000000    0.7271780000000000 O
   0.1183220000000000    0.6498740000000000    0.0106900000000000 O
   0.8749860000000000    0.1685620000000000    0.5716510000000000 O
   0.7500000000000000    0.1499430000000000    0.8795970000000000 O
   0.6183220000000000    0.8501260000000000    0.5106900000000000 O
   0.4402440000000000    0.6155800000000000    0.7728220000000000 O
   0.2500000000000000    0.3500570000000000    0.3795970000000000 O
   0.2500000000000000    0.8500570000000000    0.1204030000000000 O
   0.6183220000000000    0.3501260000000000    0.9893100000000000 O
   0.7500000000000000    0.3994110000000000    0.7858330000000000 O
   0.5484170000000000    0.1379340000000000    0.1230430000000000 O
