Li4 As2 P2 C2 O14
1.0
   6.5417410000000000    0.0000000000000000    0.0000000000000000
   0.0000000000000000    5.0974529999999998    0.0000000000000000
   0.0000000000000000    0.6127350000000000    8.9223730000000003
Li As P C O
4 2 2 2 14
direct
   0.4578560000000000    0.2403760000000000    0.7684480000000000 Li
   0.0421440000000000    0.2403760000000000    0.7684480000000000 Li
   0.5421440000000000    0.7596240000000000    0.2315520000000000 Li
   0.9578560000000000    0.7596240000000000    0.2315520000000000 Li
   0.7500000000000000    0.8204020000000000    0.6469110000000000 As
   0.2500000000000000    0.1795980000000000    0.3530890000000000 As
   0.2500000000000000    0.7460210000000000    0.6044349999999999 P
   0.7500000000000000    0.2539790000000000    0.3955650000000000 P
   0.7500000000000000    0.7245680000000000    0.9303220000000000 C
   0.2500000000000000    0.2754320000000000    0.0696780000000000 C
   0.2500000000000000    0.2577790000000000    0.9308300000000000 O
   0.7500000000000000    0.9530840000000000    0.8390570000000001 O
   0.7500000000000000    0.5140660000000000    0.8585830000000000 O
   0.0629720000000000    0.8845750000000000    0.6717750000000000 O
   0.4370280000000000    0.8845750000000000    0.6717750000000000 O
   0.7500000000000000    0.1898730000000000    0.5731680000000000 O
   0.2500000000000000    0.4490460000000000    0.6345420000000001 O
   0.7500000000000000    0.5509540000000001    0.3654580000000000 O
   0.2500000000000000    0.8101270000000000    0.4268320000000000 O
   0.5629720000000000    0.1154250000000000    0.3282250000000000 O
   0.9370280000000000    0.1154250000000000    0.3282250000000000 O
   0.2500000000000000    0.4859340000000000    0.1414170000000000 O
   0.2500000000000000    0.0469160000000000    0.1609430000000000 O
   0.7500000000000000    0.7422210000000000    0.0691700000000000 O
