Li2 Al2 Si6 O16
1.0
   0.0179230000000000   -0.0969580000000000    7.1297340000000000
   3.7762570000000002   -6.2065580000000002   -1.0262880000000001
   3.3159179999999999    6.3592360000000001   -2.5300850000000001
Li Al Si O
2 2 6 16
direct
   0.8496390000000000    0.7219030000000000    0.7513440000000000 Li
   0.1503610000000000    0.2780970000000000    0.2486560000000000 Li
   0.7996250000000000    0.1478010000000000    0.8379720000000001 Al
   0.2003750000000000    0.8521990000000000    0.1620280000000000 Al
   0.6277570000000000    0.2133470000000000    0.4503140000000000 Si
   0.3722430000000000    0.7866530000000000    0.5496860000000000 Si
   0.7555300000000000    0.8173480000000000    0.1728600000000000 Si
   0.2444700000000000    0.1826520000000000    0.8271400000000000 Si
   0.7092050000000000    0.4271080000000000    0.2211420000000000 Si
   0.2907950000000000    0.5728920000000000    0.7788580000000001 Si
   0.7274030000000000    0.4307210000000000    0.4466670000000000 O
   0.2725970000000000    0.5692790000000000    0.5533330000000000 O
   0.6298460000000000    0.8772970000000000    0.6876880000000000 O
   0.3701540000000000    0.1227030000000000    0.3123120000000000 O
   0.0536730000000000    0.1282930000000000    0.8846250000000000 O
   0.9463270000000000    0.8717070000000000    0.1153750000000000 O
   0.7269180000000000    0.0332210000000000    0.3339980000000000 O
   0.2730820000000000    0.9667790000000001    0.6660020000000000 O
   0.8394140000000000    0.2873140000000000    0.1126370000000000 O
   0.1605860000000000    0.7126860000000000    0.8873630000000000 O
   0.7982010000000000    0.6765450000000000    0.2922960000000000 O
   0.2017990000000000    0.3234550000000000    0.7077040000000000 O
   0.5416860000000000    0.6774200000000000    0.9440830000000000 O
   0.4583140000000000    0.3225800000000000    0.0559170000000000 O
   0.7110850000000000    0.2848120000000000    0.7040930000000000 O
   0.2889150000000000    0.7151880000000000    0.2959070000000000 O
