Li12 Ge6 S36 O126
1.0
  -7.4031959199999999  -12.8227490900000003   -0.0000009800000000
 -14.8063425500000001   -0.0000290000000000    0.0000078400000000
  -7.4031730199999997   -4.2742641499999996  -13.0973235300000006
Li Ge S O
12 6 36 126
direct
   0.6453773800000000    0.3124553700000000    0.0295230700000000 Li
   0.0126553200000000    0.6453773400000000    0.0295254400000000 Li
   0.3124480300000000    0.0126513200000000    0.0295234800000000 Li
   0.3546226200000000    0.6875446300000000    0.9704769300000000 Li
   0.9873446800000000    0.3546226600000000    0.9704745600000000 Li
   0.6875519700000000    0.9873486800000000    0.9704765200000000 Li
   0.8483020100000001    0.1692548300000000    0.5340916100000000 Li
   0.4483580000000000    0.8482984300000000    0.5340931799999999 Li
   0.1692532900000000    0.4483517600000000    0.5340918500000000 Li
   0.1516979900000000    0.8307451700000000    0.4659083900000000 Li
   0.5516420000000000    0.1517015700000000    0.4659068200000000 Li
   0.8307467100000000    0.5516482400000000    0.4659081500000000 Li
   0.9169598000000000    0.9169626400000001    0.2490968800000000 Ge
   0.0830402000000000    0.0830373600000000    0.7509031200000000 Ge
   0.2561115500000000    0.2561047200000000    0.2316603300000000 Ge
   0.7438884500000000    0.7438952800000000    0.7683396700000000 Ge
   0.5787505800000000    0.5787514600000000    0.2637694300000000 Ge
   0.4212494200000000    0.4212485400000000    0.7362305700000000 Ge
   0.8459557700000000    0.8427007000000000    0.1346737300000000 S
   0.1766649000000000    0.8459573000000000    0.1346725400000000 S
   0.8427081199999999    0.1766671700000000    0.1346694500000000 S
   0.1540442300000000    0.1572993000000000    0.8653262700000000 S
   0.8233351000000000    0.1540427000000000    0.8653274600000000 S
   0.1572918800000000    0.8233328300000000    0.8653305500000000 S
   0.4230915200000000    0.1184547700000000    0.3593510100000000 S
   0.0990922600000000    0.4230870300000000    0.3593533800000000 S
   0.1184620700000000    0.0990958600000000    0.3593502000000000 S
   0.5769084799999999    0.8815452300000000    0.6406489900000000 S
   0.9009077400000000    0.5769129700000000    0.6406466200000001 S
   0.8815379300000000    0.9009041400000000    0.6406498000000000 S
   0.5050384400000000    0.1371262600000000    0.1464850900000000 S
   0.2113397600000000    0.5050387700000000    0.1464888000000000 S
   0.1371297900000000    0.2113344900000000    0.1464876400000000 S
   0.4949615600000000    0.8628737399999999    0.8535149100000000 S
   0.7886602400000000    0.4949612300000000    0.8535112000000000 S
   0.8628702100000000    0.7886655100000000    0.8535123600000000 S
   0.7309783900000000    0.8255515000000000    0.3473201500000000 S
   0.0961532500000000    0.7309697800000000    0.3473166300000000 S
   0.8255550600000000    0.0961515300000000    0.3473156500000000 S
   0.2690216100000000    0.1744485000000000    0.6526798500000000 S
   0.9038467500000000    0.2690302200000000    0.6526833700000000 S
   0.1744449400000000    0.9038484700000000    0.6526843500000000 S
   0.5023220600000000    0.5230148700000000    0.1412656800000000 S
   0.8334025400000000    0.5023315000000000    0.1412568900000000 S
   0.5230156200000000    0.8333962600000000    0.1412592100000000 S
   0.4976779400000000    0.4769851300000000    0.8587343200000001 S
   0.1665974600000000    0.4976685000000000    0.8587431100000000 S
   0.4769843800000000    0.1666037400000000    0.8587407900000000 S
   0.7652448300000000    0.4288677500000000    0.3607918600000000 S
   0.4450987200000000    0.7652453500000000    0.3607921000000000 S
   0.4288706300000000    0.4451020500000000    0.3607912900000000 S
   0.2347551700000000    0.5711322500000000    0.6392081400000000 S
   0.5549012800000001    0.2347546500000000    0.6392079000000001 S
   0.5711293700000000    0.5548979500000000    0.6392087100000000 S
   0.9250531500000000    0.8535853700000000    0.1625280100000000 O
   0.0588298500000000    0.9250581700000000    0.1625269400000000 O
   0.8535899300000001    0.0588314700000000    0.1625228700000000 O
   0.0749468500000000    0.1464146300000000    0.8374719900000001 O
   0.9411701500000000    0.0749418300000000    0.8374730600000000 O
   0.1464100700000000    0.9411685300000000    0.8374771300000000 O
   0.7785151300000001    0.9026894700000000    0.3363925700000000 O
   0.9824042400000000    0.7785175100000000    0.3363885300000000 O
   0.9026876500000000    0.9824039100000000    0.3363908300000000 O
   0.2214848700000000    0.0973105300000000    0.6636074300000000 O
   0.0175957600000000    0.2214824900000000    0.6636114700000000 O
   0.0973123500000000    0.0175960900000000    0.6636091700000000 O
   0.4930961400000000    0.0617277900000000    0.2665907700000000 O
   0.1785832900000000    0.4930892900000000    0.2665958700000000 O
   0.0617284600000000    0.1785838200000000    0.2665909400000000 O
   0.5069038600000000    0.9382722100000001    0.7334092300000000 O
   0.8214167100000000    0.5069107100000000    0.7334041300000000 O
   0.9382715400000000    0.8214161800000001    0.7334090599999999 O
   0.7298442300000000    0.8639115700000000    0.2302962100000000 O
   0.1759468500000000    0.7298467700000000    0.2302875400000000 O
   0.8639132100000000    0.1759494100000000    0.2302937400000000 O
   0.2701557700000000    0.1360884300000000    0.7697037900000000 O
   0.8240531500000000    0.2701532300000000    0.7697124600000000 O
   0.1360867900000000    0.8240505900000000    0.7697062600000000 O
   0.3358624600000000    0.2227234000000000    0.3170493800000000 O
   0.1243597700000000    0.3358587800000000    0.3170506500000000 O
   0.2227249900000000    0.1243642200000000    0.3170514200000000 O
   0.6641375400000000    0.7772766000000000    0.6829506200000000 O
   0.8756402300000000    0.6641412200000000    0.6829493500000000 O
   0.7772750100000000    0.8756357800000000    0.6829485800000000 O
   0.8142438000000000    0.9307724600000000    0.0487743300000000 O
   0.2062038800000000    0.8142521900000000    0.0487663400000000 O
   0.9307788800000000    0.2061964500000000    0.0487699400000000 O
   0.1857562000000000    0.0692275400000000    0.9512256700000000 O
   0.7937961200000000    0.1857478100000000    0.9512336600000000 O
   0.0692211200000000    0.7938035500000000    0.9512300600000000 O
   0.8006554800000000    0.7126035800000000    0.3721369900000000 O
   0.1146111600000000    0.8006534100000000    0.3721329200000000 O
   0.7125992400000000    0.1146058100000000    0.3721370500000000 O
   0.1993445200000000    0.2873964200000000    0.6278630100000000 O
   0.8853888400000000    0.1993465900000000    0.6278670800000000 O
   0.2874007600000000    0.8853941900000000    0.6278629500000000 O
   0.3802874200000000    0.0375235300000000    0.4435289500000000 O
   0.1386494300000000    0.3802826500000000    0.4435335300000000 O
   0.0375224800000000    0.1386544400000000    0.4435311300000000 O
   0.6197125800000000    0.9624764700000000    0.5564710500000000 O
   0.8613505700000000    0.6197173499999999    0.5564664700000000 O
   0.9624775200000000    0.8613455600000000    0.5564688700000000 O
   0.8844764600000000    0.7318837000000000    0.1364728300000000 O
   0.2471606000000000    0.8844775499999999    0.1364770900000000 O
   0.7318872600000000    0.2471647700000000    0.1364719000000000 O
   0.1155235400000000    0.2681163000000000    0.8635271700000000 O
   0.7528394000000000    0.1155224500000000    0.8635229100000000 O
   0.2681127400000000    0.7528352300000000    0.8635281000000000 O
   0.5721586300000000    0.0578374300000000    0.0932027600000000 O
   0.2767936500000000    0.5721629600000000    0.0932069000000000 O
   0.0578355000000000    0.2767859400000000    0.0932055300000000 O
   0.4278413700000000    0.9421625700000000    0.9067972399999999 O
   0.7232063500000000    0.4278370400000000    0.9067931000000000 O
   0.9421645000000000    0.7232140600000000    0.9067944700000000 O
   0.5406763100000000    0.2215224200000000    0.1252329100000000 O
   0.1125565600000000    0.5406873100000000    0.1252406200000000 O
   0.2215201600000000    0.1125592800000000    0.1252392100000000 O
   0.4593236900000000    0.7784775800000000    0.8747670900000000 O
   0.8874434400000000    0.4593126900000000    0.8747593800000000 O
   0.7784798400000000    0.8874407200000000    0.8747607900000000 O
   0.6175543800000000    0.8579329600000000    0.4056181700000000 O
   0.1188970100000000    0.6175503200000000    0.4056063200000000 O
   0.8579340600000001    0.1188975200000000    0.4056112800000000 O
   0.3824456200000000    0.1420670400000000    0.5943818300000000 O
   0.8811029900000000    0.3824496800000000    0.5943936800000000 O
   0.1420659400000000    0.8811024800000000    0.5943887200000000 O
   0.5891772600000000    0.5155761600000000    0.1736140800000000 O
   0.7216349300000000    0.5891809099999999    0.1736079900000000 O
   0.5155802800000000    0.7216333100000000    0.1736113000000000 O
   0.4108227400000000    0.4844238400000000    0.8263859200000000 O
   0.2783650700000000    0.4108190900000000    0.8263920100000000 O
   0.4844197200000000    0.2783666900000000    0.8263887000000000 O
   0.3875900800000000    0.1814957000000000    0.1444375300000000 O
   0.2864623800000000    0.3875946700000000    0.1444324300000000 O
   0.1814994600000000    0.2864679200000000    0.1444323400000000 O
   0.6124099200000001    0.8185043000000000    0.8555624700000000 O
   0.7135376200000000    0.6124053300000000    0.8555675700000001 O
   0.8185005400000001    0.7135320800000000    0.8555676600000000 O
   0.6550362000000000    0.4509499000000000    0.3544992500000000 O
   0.5395160100000000    0.6550356000000001    0.3545062200000000 O
   0.4509468600000000    0.5395189500000001    0.3544996300000000 O
   0.3449638000000000    0.5490501000000000    0.6455007500000000 O
   0.4604839900000000    0.3449644000000000    0.6454937800000000 O
   0.5490531400000001    0.4604810500000000    0.6455003700000000 O
   0.4952076200000000    0.1498999800000000    0.3674752700000000 O
   0.9874122700000000    0.4952051000000000    0.3674762800000000 O
   0.1499084800000000    0.9874174300000000    0.3674702700000000 O
   0.5047923800000000    0.8501000200000000    0.6325247300000000 O
   0.0125877300000000    0.5047949000000000    0.6325237200000000 O
   0.8500915200000000    0.0125825700000000    0.6325297300000000 O
   0.4456930900000000    0.6322013700000000    0.0873607600000000 O
   0.8347496800000000    0.4456986200000000    0.0873531000000000 O
   0.6321990400000000    0.8347508200000000    0.0873534500000000 O
   0.5543069100000000    0.3677986300000000    0.9126392400000000 O
   0.1652503200000000    0.5543013800000000    0.9126469000000000 O
   0.3678009600000000    0.1652491800000000    0.9126465499999999 O
   0.7978841100000000    0.3237601200000000    0.4333626800000000 O
   0.4450086700000000    0.7978870300000001    0.4333634800000000 O
   0.3237520500000000    0.4449994600000000    0.4333612000000000 O
   0.2021158900000000    0.6762398800000000    0.5666373200000000 O
   0.5549913300000000    0.2021129700000000    0.5666365200000000 O
   0.6762479500000000    0.5550005400000000    0.5666388000000000 O
   0.8498986900000000    0.4072064400000000    0.2512923300000000 O
   0.4916151100000000    0.8498959200000000    0.2512945600000000 O
   0.4072017600000000    0.4916039400000000    0.2512927400000000 O
   0.1501013100000000    0.5927935600000001    0.7487076700000000 O
   0.5083848900000000    0.1501040800000000    0.7487054400000001 O
   0.5927982400000000    0.5083960600000000    0.7487072600000000 O
   0.5461901500000000    0.4368836300000000    0.0991479900000000 O
   0.9177802700000000    0.5461896000000001    0.0991440800000000 O
   0.4368849900000000    0.9177791500000000    0.0991491000000000 O
   0.4538098500000000    0.5631163700000000    0.9008520100000000 O
   0.0822197300000000    0.4538104000000000    0.9008559200000000 O
   0.5631150100000000    0.0822208500000000    0.9008509000000000 O
   0.7692437800000000    0.5210670400000000    0.3654664400000000 O
   0.3442319900000000    0.7692492200000000    0.3654711900000000 O
   0.5210603000000000    0.3442342700000000    0.3654691100000000 O
   0.2307562200000000    0.4789329600000000    0.6345335600000001 O
   0.6557680100000000    0.2307507800000000    0.6345288100000001 O
   0.4789397000000000    0.6557657300000000    0.6345308900000000 O
