pymatgen with grid density = 1494 / number of atoms
0
Gamma
4 4 1
