Li2 H12 N2 O12
1.0
   3.4695570000000000   -6.3428199999999997    0.0000000000000000
   3.4695570000000000    6.3428199999999997    0.0000000000000000
   0.0000000000000000    0.0000000000000000    6.0686099999999996
Li H N O
2 12 2 12
direct
   0.0000000000000000    0.0000000000000000    0.5000000000000000 Li
   0.0000000000000000    0.0000000000000000    0.0000000000000000 Li
   0.3193240000000000    0.6806759999999999    0.6205760000000000 H
   0.3698250000000000    0.2009440000000000    0.7500000000000000 H
   0.6806759999999999    0.3193240000000000    0.1205760000000000 H
   0.6806759999999999    0.3193240000000000    0.3794240000000000 H
   0.3193240000000000    0.6806759999999999    0.8794240000000000 H
   0.2669450000000000    0.3431560000000000    0.7500000000000000 H
   0.6301750000000000    0.7990560000000000    0.2500000000000000 H
   0.7330550000000000    0.6568440000000000    0.2500000000000000 H
   0.6568440000000000    0.7330550000000000    0.7500000000000000 H
   0.7990560000000000    0.6301750000000000    0.7500000000000000 H
   0.2009440000000000    0.3698250000000000    0.2500000000000000 H
   0.3431560000000000    0.2669450000000000    0.2500000000000000 H
   0.7799190000000000    0.2200810000000000    0.7500000000000000 N
   0.2200810000000000    0.7799190000000000    0.2500000000000000 N
   0.8277530000000000    0.1722470000000000    0.5678620000000000 O
   0.7719020000000000    0.8109380000000000    0.2500000000000000 O
   0.2280980000000000    0.1890620000000000    0.7500000000000000 O
   0.3213970000000000    0.6786030000000000    0.2500000000000000 O
   0.6786030000000000    0.3213970000000000    0.7500000000000000 O
   0.1890620000000000    0.2280980000000000    0.2500000000000000 O
   0.1722470000000000    0.8277530000000000    0.0678620000000000 O
   0.1722470000000000    0.8277530000000000    0.4321380000000000 O
   0.8277530000000000    0.1722470000000000    0.9321380000000000 O
   0.8109380000000000    0.7719020000000000    0.7500000000000000 O
   0.6340120000000000    0.3659880000000000    0.2500000000000000 O
   0.3659880000000000    0.6340120000000000    0.7500000000000000 O
