ALGO = Fast
EDIFF = 0.0010500000000000002
ENCUT = 520
IBRION = 2
ISIF = 3
ISMEAR = -5
ISPIN = 2
LASPH = True
LMAXMIX = 6
LORBIT = 11
LREAL = Auto
LWAVE = False
MAGMOM = 1*0.002 1*0.063 1*0.004 1*0.02 1*0.002 1*0.001 1*0.019 1*0.017 1*0.368 1*0.002 1*0.001 1*0.025 1*0.023 1*0.004 1*0.003 1*0.011 1*0.047 1*0.009 1*0.011 1*0.014 1*0.049
NELM = 100
NSW = 99
PREC = Accurate
SIGMA = 0.05
