Li1 Y4 Bi4 O12
1.0
   5.9632449999999997   -0.1968200000000000    0.0615410000000000
  -0.2277800000000000    6.0671160000000004   -0.1223700000000000
   0.1188490000000000   -0.1996210000000000    9.4378279999999997
Li Y Bi O
1 4 4 12
direct
   0.3421530000000000    0.3568870000000000    0.0393190000000000 Li
   0.9627360000000000    0.0463260000000000    0.7711090000000000 Y
   0.5661480000000000    0.5600950000000000    0.2890550000000000 Y
   0.5166360000000000    0.4885200000000000    0.7168639999999999 Y
   0.9737690000000000    0.0626320000000000    0.2244230000000000 Y
   0.0638260000000000    0.4999730000000000    0.4919830000000000 Bi
   0.5246230000000000    0.0323290000000000    0.4769850000000000 Bi
   0.4545660000000000    0.9183970000000000    0.0158020000000000 Bi
   0.9076910000000000    0.4995190000000000    0.9773890000000000 Bi
   0.7651150000000000    0.3041610000000000    0.3878780000000000 O
   0.1900890000000000    0.2586930000000000    0.6373650000000000 O
   0.7453000000000000    0.7742160000000000    0.1090370000000000 O
   0.3466360000000000    0.5909100000000000    0.9122140000000000 O
   0.4274930000000000    0.6574220000000000    0.5261330000000000 O
   0.8062070000000000    0.8457870000000000    0.3939270000000000 O
   0.1011140000000000    0.1268000000000000    0.9887230000000000 O
   0.6425500000000000    0.2979230000000000    0.1080730000000000 O
   0.2267140000000000    0.3516620000000000    0.3047070000000000 O
   0.6575550000000000    0.1576880000000000    0.6860470000000000 O
   0.2990520000000000    0.8541590000000000    0.2182940000000000 O
   0.8341930000000000    0.7013190000000000    0.7675320000000000 O
