Li12 Sb4 H72 S16 O36
1.0
  11.5397929999999995    0.0000000000000000    0.0000000000000000
   0.0000000000000000   11.5397929999999995    0.0000000000000000
   0.0000000000000000    0.0000000000000000   11.5397929999999995
Li Sb H S O
12 4 72 16 36
direct
   0.0497380000000000    0.5497379999999999    0.9502620000000001 Li
   0.0904770000000000    0.9095230000000000    0.4095230000000000 Li
   0.2051260000000000    0.7051260000000000    0.7948740000000000 Li
   0.2948740000000000    0.2948740000000000    0.2948740000000000 Li
   0.4095230000000000    0.0904770000000000    0.9095230000000000 Li
   0.4502620000000000    0.4502620000000000    0.4502620000000000 Li
   0.5497379999999999    0.9502620000000001    0.0497380000000000 Li
   0.5904770000000000    0.5904770000000000    0.5904770000000000 Li
   0.7051260000000000    0.7948740000000000    0.2051260000000000 Li
   0.7948740000000000    0.2051260000000000    0.7051260000000000 Li
   0.9095230000000000    0.4095230000000000    0.0904770000000000 Li
   0.9502620000000001    0.0497380000000000    0.5497379999999999 Li
   0.0383730000000000    0.0383730000000000    0.0383730000000000 Sb
   0.4616270000000000    0.9616270000000000    0.5383730000000000 Sb
   0.5383730000000000    0.4616270000000000    0.9616270000000000 Sb
   0.9616270000000000    0.5383730000000000    0.4616270000000000 Sb
   0.0157280000000000    0.2519700000000000    0.6565290000000000 H
   0.0271890000000000    0.3051510000000000    0.9275780000000000 H
   0.0374180000000000    0.1650560000000000    0.7588620000000000 H
   0.0558350000000000    0.2269740000000000    0.2673090000000000 H
   0.0649340000000000    0.3105060000000000    0.3729660000000000 H
   0.0770140000000000    0.8681460000000000    0.6373740000000000 H
   0.0724220000000000    0.5271890000000000    0.1948490000000000 H
   0.1270340000000000    0.9350660000000000    0.8105059999999999 H
   0.1373740000000000    0.4229860000000000    0.1318540000000000 H
   0.1318540000000000    0.1373740000000000    0.4229860000000000 H
   0.1565290000000000    0.4842720000000000    0.7480300000000000 H
   0.1650560000000000    0.7588620000000000    0.0374180000000000 H
   0.1894940000000000    0.6270340000000000    0.5649340000000000 H
   0.1948490000000000    0.0724220000000000    0.5271890000000000 H
   0.2269740000000000    0.2673090000000000    0.0558350000000000 H
   0.2326910000000000    0.9441650000000000    0.7269740000000000 H
   0.2411380000000000    0.5374180000000000    0.3349440000000000 H
   0.2480300000000000    0.3434710000000000    0.5157280000000000 H
   0.2519700000000000    0.6565290000000000    0.0157280000000000 H
   0.2588620000000000    0.4625820000000000    0.8349440000000000 H
   0.2673090000000000    0.0558350000000000    0.2269740000000000 H
   0.2730260000000000    0.7326910000000000    0.5558350000000000 H
   0.3051510000000000    0.9275780000000000    0.0271890000000000 H
   0.3105060000000000    0.3729660000000000    0.0649340000000000 H
   0.3349440000000000    0.2411380000000000    0.5374180000000000 H
   0.3434710000000000    0.5157280000000000    0.2480300000000000 H
   0.3681460000000000    0.8626260000000000    0.9229860000000000 H
   0.3626260000000000    0.5770140000000000    0.6318540000000000 H
   0.3729660000000000    0.0649340000000000    0.3105060000000000 H
   0.4275780000000000    0.4728110000000000    0.6948490000000000 H
   0.4229860000000000    0.1318540000000000    0.1373740000000000 H
   0.4350660000000000    0.6894940000000001    0.8729660000000000 H
   0.4441650000000000    0.7730260000000000    0.7673090000000000 H
   0.4625820000000000    0.8349440000000000    0.2588620000000000 H
   0.4728110000000000    0.6948490000000000    0.4275780000000000 H
   0.4842720000000000    0.7480300000000000    0.1565290000000000 H
   0.5157280000000000    0.2480300000000000    0.3434710000000000 H
   0.5271890000000000    0.1948490000000000    0.0724220000000000 H
   0.5374180000000000    0.3349440000000000    0.2411380000000000 H
   0.5558350000000000    0.2730260000000000    0.7326910000000000 H
   0.5649340000000000    0.1894940000000000    0.6270340000000000 H
   0.5770140000000000    0.6318540000000000    0.3626260000000000 H
   0.5724220000000000    0.9728110000000000    0.8051510000000000 H
   0.6270340000000000    0.5649340000000000    0.1894940000000000 H
   0.6373740000000000    0.0770140000000000    0.8681460000000000 H
   0.6318540000000000    0.3626260000000000    0.5770140000000000 H
   0.6565290000000000    0.0157280000000000    0.2519700000000000 H
   0.6650560000000000    0.7411380000000000    0.9625820000000000 H
   0.6894940000000001    0.8729660000000000    0.4350660000000000 H
   0.6948490000000000    0.4275780000000000    0.4728110000000000 H
   0.7269740000000000    0.2326910000000000    0.9441650000000000 H
   0.7326910000000000    0.5558350000000000    0.2730260000000000 H
   0.7411380000000000    0.9625820000000000    0.6650560000000000 H
   0.7480300000000000    0.1565290000000000    0.4842720000000000 H
   0.7519700000000000    0.8434710000000000    0.9842720000000000 H
   0.7588620000000000    0.0374180000000000    0.1650560000000000 H
   0.7673090000000000    0.4441650000000000    0.7730260000000000 H
   0.7730260000000000    0.7673090000000000    0.4441650000000000 H
   0.8051510000000000    0.5724220000000000    0.9728110000000000 H
   0.8105059999999999    0.1270340000000000    0.9350660000000000 H
   0.8349440000000000    0.2588620000000000    0.4625820000000000 H
   0.8434710000000000    0.9842720000000000    0.7519700000000000 H
   0.8681460000000000    0.6373740000000000    0.0770140000000000 H
   0.8626260000000000    0.9229860000000000    0.3681460000000000 H
   0.8729660000000000    0.4350660000000000    0.6894940000000001 H
   0.9275780000000000    0.0271890000000000    0.3051510000000000 H
   0.9229860000000000    0.3681460000000000    0.8626260000000000 H
   0.9350660000000000    0.8105059999999999    0.1270340000000000 H
   0.9441650000000000    0.7269740000000000    0.2326910000000000 H
   0.9625820000000000    0.6650560000000000    0.7411380000000000 H
   0.9728110000000000    0.8051510000000000    0.5724220000000000 H
   0.9842720000000000    0.7519700000000000    0.8434710000000000 H
   0.0801530000000000    0.4198470000000000    0.5801530000000000 S
   0.0825940000000000    0.6555140000000000    0.3451610000000000 S
   0.1548390000000000    0.9174060000000001    0.1555140000000000 S
   0.1555140000000000    0.1548390000000000    0.9174060000000001 S
   0.3444860000000000    0.8451610000000001    0.4174060000000000 S
   0.3451610000000000    0.0825940000000000    0.6555140000000000 S
   0.4174060000000000    0.3444860000000000    0.8451610000000001 S
   0.4198470000000000    0.5801530000000000    0.0801530000000000 S
   0.5801530000000000    0.0801530000000000    0.4198470000000000 S
   0.5825939999999999    0.8444860000000000    0.6548389999999999 S
   0.6548389999999999    0.5825939999999999    0.8444860000000000 S
   0.6555140000000000    0.3451610000000000    0.0825940000000000 S
   0.8444860000000000    0.6548389999999999    0.5825939999999999 S
   0.8451610000000001    0.4174060000000000    0.3444860000000000 S
   0.9174060000000001    0.1555140000000000    0.1548390000000000 S
   0.9198470000000000    0.9198470000000000    0.9198470000000000 S
   0.0137090000000000    0.6792970000000000    0.8085210000000000 O
   0.0258160000000000    0.8724250000000000    0.5681850000000001 O
   0.0681850000000000    0.4741840000000000    0.1275750000000000 O
   0.1111940000000000    0.2556540000000000    0.3270710000000000 O
   0.1275750000000000    0.0681850000000000    0.4741840000000000 O
   0.1729290000000000    0.8888060000000000    0.7556540000000000 O
   0.1792970000000000    0.6914790000000000    0.9862910000000000 O
   0.1914790000000000    0.5137090000000000    0.8207030000000000 O
   0.2443460000000000    0.6729290000000000    0.6111940000000000 O
   0.2556540000000000    0.3270710000000000    0.1111940000000000 O
   0.3085210000000000    0.4862910000000000    0.3207030000000000 O
   0.3207030000000000    0.3085210000000000    0.4862910000000000 O
   0.3270710000000000    0.1111940000000000    0.2556540000000000 O
   0.3724250000000000    0.9318149999999999    0.9741840000000000 O
   0.3888060000000000    0.7443460000000000    0.8270710000000000 O
   0.4318150000000000    0.5258160000000000    0.6275750000000000 O
   0.4741840000000000    0.1275750000000000    0.0681850000000000 O
   0.4862910000000000    0.3207030000000000    0.3085210000000000 O
   0.5137090000000000    0.8207030000000000    0.1914790000000000 O
   0.5258160000000000    0.6275750000000000    0.4318150000000000 O
   0.5681850000000001    0.0258160000000000    0.8724250000000000 O
   0.6111940000000000    0.2443460000000000    0.6729290000000000 O
   0.6275750000000000    0.4318150000000000    0.5258160000000000 O
   0.6729290000000000    0.6111940000000000    0.2443460000000000 O
   0.6792970000000000    0.8085210000000000    0.0137090000000000 O
   0.6914790000000000    0.9862910000000000    0.1792970000000000 O
   0.7443460000000000    0.8270710000000000    0.3888060000000000 O
   0.7556540000000000    0.1729290000000000    0.8888060000000000 O
   0.8085210000000000    0.0137090000000000    0.6792970000000000 O
   0.8207030000000000    0.1914790000000000    0.5137090000000000 O
   0.8270710000000000    0.3888060000000000    0.7443460000000000 O
   0.8724250000000000    0.5681850000000001    0.0258160000000000 O
   0.8888060000000000    0.7556540000000000    0.1729290000000000 O
   0.9318149999999999    0.9741840000000000    0.3724250000000000 O
   0.9741840000000000    0.3724250000000000    0.9318149999999999 O
   0.9862910000000000    0.1792970000000000    0.6914790000000000 O
