K18 Li6 Nd6 B14 O42
1.0
  10.2087509999999995    0.0000000000000000    0.0000000000000000
   0.0000000000000000   11.5842139999999993    0.0000000000000000
   0.0000000000000000    6.6013260000000002   10.6073970000000006
K Li Nd B O
18 6 6 14 42
direct
   0.9283730000000000    0.6704520000000000    0.9124820000000000 K
   0.0716270000000000    0.3295480000000000    0.0875180000000000 K
   0.9283730000000000    0.3295480000000000    0.5875180000000000 K
   0.0716270000000000    0.6704520000000000    0.4124820000000000 K
   0.5394660000000000    0.8903660000000000    0.4437510000000000 K
   0.4605340000000000    0.1096340000000000    0.5562490000000000 K
   0.5394660000000000    0.1096340000000000    0.0562490000000000 K
   0.4605340000000000    0.8903660000000000    0.9437510000000000 K
   0.3897330000000000    0.5909390000000000    0.5528900000000000 K
   0.6102670000000000    0.4090610000000000    0.4471100000000000 K
   0.3897330000000000    0.4090610000000000    0.9471100000000000 K
   0.6102670000000000    0.5909390000000000    0.0528900000000000 K
   0.9026470000000000    0.1649290000000000    0.9449900000000000 K
   0.0973530000000000    0.8350710000000000    0.0550100000000000 K
   0.9026470000000000    0.8350710000000000    0.5550100000000000 K
   0.0973530000000000    0.1649290000000000    0.4449900000000000 K
   0.0788960000000000    0.5000000000000000    0.7500000000000000 K
   0.9211040000000000    0.5000000000000000    0.2500000000000000 K
   0.0675820000000000    0.0000000000000000    0.2500000000000000 Li
   0.9324180000000000    0.0000000000000000    0.7500000000000000 Li
   0.2901810000000000    0.0880200000000000    0.2843630000000000 Li
   0.7098190000000000    0.9119800000000000    0.7156370000000000 Li
   0.2901810000000000    0.9119800000000000    0.2156370000000000 Li
   0.7098190000000000    0.0880200000000000    0.7843630000000000 Li
   0.6861120000000001    0.5000000000000000    0.7500000000000000 Nd
   0.3138880000000000    0.5000000000000000    0.2500000000000000 Nd
   0.2966070000000000    0.7864630000000000    0.7449130000000000 Nd
   0.7033930000000000    0.2135370000000000    0.2550870000000000 Nd
   0.2966070000000000    0.2135370000000000    0.7550870000000000 Nd
   0.7033930000000000    0.7864630000000000    0.2449130000000000 Nd
   0.2181540000000000    0.5970040000000000    0.0024370000000000 B
   0.7818460000000000    0.4029960000000000    0.9975630000000000 B
   0.2181540000000000    0.4029960000000000    0.4975630000000000 B
   0.7818460000000000    0.5970040000000000    0.5024370000000000 B
   0.5778810000000000    0.7344440000000000    0.7455440000000000 B
   0.4221190000000000    0.2655560000000000    0.2544560000000000 B
   0.5778810000000000    0.2655560000000000    0.7544560000000000 B
   0.4221190000000000    0.7344440000000000    0.2455440000000000 B
   0.2281210000000000    0.8663000000000000    0.4949500000000000 B
   0.7718790000000000    0.1337000000000000    0.5050500000000000 B
   0.2281210000000000    0.1337000000000000    0.0050500000000000 B
   0.7718790000000000    0.8663000000000000    0.9949500000000000 B
   0.1519720000000000    0.0000000000000000    0.7500000000000000 B
   0.8480280000000000    0.0000000000000000    0.2500000000000000 B
   0.3464900000000000    0.6376460000000000    0.0061010000000000 O
   0.6535100000000000    0.3623540000000000    0.9938990000000000 O
   0.3464900000000000    0.3623540000000000    0.4938990000000000 O
   0.6535100000000000    0.6376460000000000    0.5061010000000000 O
   0.2882990000000000    0.0000000000000000    0.7500000000000000 O
   0.7117010000000000    0.0000000000000000    0.2500000000000000 O
   0.0856980000000000    0.1041290000000000    0.7511150000000000 O
   0.9143019999999999    0.8958710000000000    0.2488850000000000 O
   0.0856980000000000    0.8958710000000000    0.7488850000000000 O
   0.9143019999999999    0.1041290000000000    0.2511150000000000 O
   0.1971820000000000    0.9087570000000000    0.3728070000000000 O
   0.8028180000000000    0.0912430000000000    0.6271930000000000 O
   0.1971820000000000    0.0912430000000000    0.1271930000000000 O
   0.8028180000000000    0.9087570000000000    0.8728070000000000 O
   0.7128780000000000    0.7172480000000000    0.7446020000000000 O
   0.2871220000000000    0.2827520000000000    0.2553980000000000 O
   0.7128780000000000    0.2827520000000000    0.7553980000000000 O
   0.2871220000000000    0.7172480000000000    0.2446020000000000 O
   0.4923790000000000    0.6435620000000000    0.7391890000000000 O
   0.5076210000000000    0.3564380000000000    0.2608110000000000 O
   0.4923790000000000    0.3564380000000000    0.7608110000000000 O
   0.5076210000000000    0.6435620000000000    0.2391890000000000 O
   0.1810770000000000    0.5850000000000000    0.9017200000000000 O
   0.8189230000000000    0.4150000000000000    0.0982800000000000 O
   0.1810770000000000    0.4150000000000000    0.5982800000000000 O
   0.8189230000000000    0.5850000000000000    0.4017200000000000 O
   0.5270820000000001    0.8417620000000000    0.7516119999999999 O
   0.4729180000000000    0.1582380000000000    0.2483880000000000 O
   0.5270820000000001    0.1582380000000000    0.7483880000000001 O
   0.4729180000000000    0.8417620000000000    0.2516120000000000 O
   0.8660720000000000    0.5694180000000000    0.6005710000000000 O
   0.1339280000000000    0.4305820000000000    0.3994290000000000 O
   0.8660720000000000    0.4305820000000000    0.8994290000000000 O
   0.1339280000000000    0.5694180000000000    0.1005710000000000 O
   0.3017850000000000    0.9515420000000000    0.5200820000000000 O
   0.6982150000000000    0.0484580000000000    0.4799180000000000 O
   0.3017850000000000    0.0484580000000000    0.9799180000000000 O
   0.6982150000000000    0.9515420000000000    0.0200820000000000 O
   0.1917450000000000    0.7392490000000000    0.5971560000000000 O
   0.8082549999999999    0.2607510000000000    0.4028440000000000 O
   0.1917450000000000    0.2607510000000000    0.9028440000000000 O
   0.8082549999999999    0.7392490000000000    0.0971560000000000 O
