ALGO = Fast
EDIFF = 0.0038
ENCUT = 520
IBRION = 2
ISIF = 3
ISMEAR = -5
ISPIN = 2
LASPH = True
LMAXMIX = 6
LORBIT = 11
LREAL = Auto
LWAVE = False
MAGMOM = 24*0.0 4*6.928 4*0.001 8*0.0 4*0.001 4*0.0 4*0.002 8*-0.0 4*0.003 12*0.001
NELM = 100
NSW = 99
PREC = Accurate
SIGMA = 0.05
