Li4 Sn4 P8 O28
1.0
   8.7938179999999999    0.0000000000000000    0.0000000000000000
   0.0000000000000000    7.3035310000000004    0.0000000000000000
   0.0000000000000000    3.5822479999999999    8.5014830000000003
Li Sn P O
4 4 8 28
direct
   0.9516790000000001    0.2878480000000000    0.8268799999999999 Li
   0.4516790000000000    0.7121520000000000    0.6731200000000001 Li
   0.5483209999999999    0.2878480000000000    0.3268800000000000 Li
   0.0483210000000000    0.7121520000000000    0.1731200000000000 Li
   0.5775660000000000    0.2509900000000000    0.8821190000000000 Sn
   0.0775660000000000    0.7490100000000000    0.6178810000000000 Sn
   0.9224340000000000    0.2509900000000000    0.3821190000000000 Sn
   0.4224340000000000    0.7490100000000000    0.1178810000000000 Sn
   0.7255590000000000    0.5357140000000000    0.5298290000000000 P
   0.2255590000000000    0.4642860000000000    0.9701710000000000 P
   0.7401040000000000    0.9332320000000000    0.2478830000000000 P
   0.2401040000000000    0.0667680000000000    0.2521170000000000 P
   0.7598960000000000    0.9332320000000000    0.7478830000000000 P
   0.2598960000000000    0.0667680000000000    0.7521170000000000 P
   0.7744410000000000    0.5357140000000000    0.0298290000000000 P
   0.2744410000000000    0.4642860000000000    0.4701710000000000 P
   0.5926630000000001    0.4935820000000000    0.6480720000000000 O
   0.8804959999999999    0.5406700000000000    0.6038430000000000 O
   0.7751700000000000    0.3879530000000000    0.9467170000000000 O
   0.2751700000000000    0.6120470000000000    0.5532830000000000 O
   0.3804960000000000    0.4593300000000000    0.8961570000000000 O
   0.6771920000000000    0.7496390000000001    0.4014840000000000 O
   0.0926630000000000    0.5064180000000000    0.8519280000000000 O
   0.2401390000000000    0.8865260000000000    0.2029040000000000 O
   0.8871090000000000    0.8809320000000000    0.1942630000000000 O
   0.6029250000000000    0.9706860000000000    0.1259110000000000 O
   0.8228080000000000    0.7496390000000001    0.9014840000000000 O
   0.1029250000000000    0.0293140000000000    0.3740890000000000 O
   0.2598610000000000    0.8865260000000000    0.7029040000000000 O
   0.6128910000000000    0.8809320000000000    0.6942630000000000 O
   0.3871090000000000    0.1190680000000000    0.3057370000000000 O
   0.7401390000000000    0.1134740000000000    0.2970960000000000 O
   0.8970750000000000    0.9706860000000000    0.6259110000000000 O
   0.1771920000000000    0.2503610000000000    0.0985160000000000 O
   0.3970750000000000    0.0293140000000000    0.8740890000000000 O
   0.1128910000000000    0.1190680000000000    0.8057370000000000 O
   0.7598610000000000    0.1134740000000000    0.7970960000000000 O
   0.9073369999999999    0.4935820000000000    0.1480720000000000 O
   0.3228080000000000    0.2503610000000000    0.5985160000000000 O
   0.6195040000000001    0.5406700000000000    0.1038430000000000 O
   0.7248300000000000    0.3879530000000000    0.4467170000000000 O
   0.2248300000000000    0.6120470000000000    0.0532830000000000 O
   0.1195040000000000    0.4593300000000000    0.3961570000000000 O
   0.4073370000000000    0.5064180000000000    0.3519280000000000 O
