Li2 Sn8 P14 O48
1.0
  10.5432880000000004    0.0000000000000000    0.0000000000000000
  -2.7222000000000000   10.6932530000000003    0.0000000000000000
  -4.2634860000000003   -4.9366820000000002    9.3892199999999999
Li Sn P O
2 8 14 48
direct
   0.5983670000000000    0.4172920000000000    0.7186740000000000 Li
   0.4016330000000000    0.5827080000000000    0.2813260000000000 Li
   0.5028710000000000    0.9088290000000000    0.7539580000000000 Sn
   0.0111250000000000    0.3701950000000000    0.0815240000000000 Sn
   0.5050110000000000    0.6524759999999999    0.9026790000000000 Sn
   0.9825800000000000    0.8030180000000000    0.3989970000000000 Sn
   0.0174200000000000    0.1969820000000000    0.6010030000000000 Sn
   0.4949890000000000    0.3475240000000000    0.0973210000000000 Sn
   0.9888749999999999    0.6298049999999999    0.9184760000000000 Sn
   0.4971290000000000    0.0911710000000000    0.2460420000000000 Sn
   0.7844780000000000    0.8128850000000000    0.7823970000000000 P
   0.2257650000000000    0.6217840000000000    0.4475610000000000 P
   0.2063430000000000    0.9337420000000000    0.2636850000000000 P
   0.2527430000000000    0.0408730000000000    0.7532950000000000 P
   0.2617670000000000    0.3776130000000000    0.5075070000000000 P
   0.7389850000000000    0.1592670000000000    0.1249150000000000 P
   0.7563470000000000    0.5168860000000000    0.0415650000000000 P
   0.2436530000000000    0.4831140000000000    0.9584350000000000 P
   0.2610150000000000    0.8407330000000000    0.8750850000000000 P
   0.7382330000000000    0.6223870000000000    0.4924930000000000 P
   0.7472569999999999    0.9591270000000000    0.2467050000000000 P
   0.7936569999999999    0.0662580000000000    0.7363150000000001 P
   0.7742350000000000    0.3782160000000000    0.5524390000000000 P
   0.2155220000000000    0.1871150000000000    0.2176030000000000 P
   0.8686700000000001    0.2034010000000000    0.8720560000000001 O
   0.6213040000000000    0.9975190000000000    0.6747190000000000 O
   0.6463420000000000    0.0577830000000000    0.9656670000000001 O
   0.0971630000000000    0.2028520000000000    0.1074590000000000 O
   0.3879480000000000    0.7344610000000000    0.5580290000000000 O
   0.2207450000000000    0.5620680000000000    0.3028510000000000 O
   0.6855390000000000    0.5627330000000000    0.9272430000000000 O
   0.6495120000000000    0.8111570000000000    0.8053070000000000 O
   0.2006770000000000    0.4932240000000000    0.4893360000000000 O
   0.3686200000000000    0.0100940000000000    0.7105500000000000 O
   0.2857400000000000    0.3162190000000000    0.3712860000000000 O
   0.1435030000000000    0.0463830000000000    0.2232610000000000 O
   0.1700880000000000    0.9224630000000000    0.3767280000000000 O
   0.4163060000000000    0.4415090000000000    0.6343420000000000 O
   0.9011470000000000    0.5079830000000000    0.0299260000000000 O
   0.1033250000000000    0.6692640000000000    0.4507080000000000 O
   0.8692440000000000    0.2907410000000000    0.1671100000000000 O
   0.3166760000000000    0.1835160000000000    0.8781130000000000 O
   0.1868250000000000    0.9204530000000000    0.7928380000000000 O
   0.1355670000000000    0.2623480000000000    0.4920590000000000 O
   0.1135690000000000    0.0183160000000000    0.6196590000000000 O
   0.3667240000000000    0.8033900000000000    0.8171460000000000 O
   0.3553100000000000    0.6290850000000000    0.0006690000000000 O
   0.8069910000000000    0.6217920000000000    0.1960760000000000 O
   0.1930090000000000    0.3782080000000000    0.8039240000000000 O
   0.6446900000000000    0.3709150000000000    0.9993310000000000 O
   0.6332760000000000    0.1966100000000000    0.1828540000000000 O
   0.8864310000000000    0.9816840000000000    0.3803410000000000 O
   0.8644330000000000    0.7376520000000000    0.5079410000000000 O
   0.8131750000000000    0.0795470000000000    0.2071620000000000 O
   0.6833240000000000    0.8164840000000000    0.1218870000000000 O
   0.1307560000000000    0.7092590000000000    0.8328900000000000 O
   0.8966750000000000    0.3307360000000000    0.5492920000000000 O
   0.0988530000000000    0.4920170000000000    0.9700740000000000 O
   0.5836940000000000    0.5584910000000000    0.3656580000000000 O
   0.8299120000000000    0.0775370000000000    0.6232720000000000 O
   0.8564970000000000    0.9536170000000000    0.7767390000000000 O
   0.7142600000000000    0.6837810000000000    0.6287140000000000 O
   0.6313790000000000    0.9899060000000000    0.2894500000000000 O
   0.7993230000000000    0.5067760000000000    0.5106640000000000 O
   0.3504880000000000    0.1888430000000000    0.1946930000000000 O
   0.3144610000000000    0.4372670000000000    0.0727570000000000 O
   0.7792550000000000    0.4379320000000000    0.6971490000000000 O
   0.6120520000000000    0.2655390000000000    0.4419710000000000 O
   0.9028370000000000    0.7971480000000000    0.8925410000000000 O
   0.3536580000000000    0.9422170000000000    0.0343330000000000 O
   0.3786960000000000    0.0024810000000000    0.3252810000000000 O
   0.1313300000000000    0.7965989999999999    0.1279440000000000 O
