ALGO = Fast
EDIFF = 0.0056
ENCUT = 520
IBRION = 2
ISIF = 3
ISMEAR = -5
ISPIN = 2
LASPH = True
LORBIT = 11
LREAL = Auto
LWAVE = False
MAGMOM = 12*0.001 2*-0.002 2*-0.003 12*0.0 12*0.001 8*-0.001 6*-0.005 4*-0.001 6*0.084 12*0.012 12*0.059 12*0.01 12*0.019
NELM = 100
NSW = 99
PREC = Accurate
SIGMA = 0.05
