Li28 Be12 B18 O54
1.0
   3.9144790000000000   -6.7800770000000004    0.0000000000000000
   3.9144790000000000    6.7800770000000004    0.0000000000000000
   0.0000000000000000    0.0000000000000000   19.1395659999999985
Li Be B O
28 12 18 54
direct
   0.6976440000000000    0.0235140000000000    0.8305100000000000 Li
   0.3023560000000000    0.9764860000000000    0.1694900000000000 Li
   0.3258700000000000    0.3023560000000000    0.8305100000000000 Li
   0.3023560000000000    0.9764860000000000    0.3305100000000000 Li
   0.6741300000000000    0.6976440000000000    0.1694900000000000 Li
   0.6976440000000000    0.0235140000000000    0.6694900000000000 Li
   0.9764860000000000    0.6741300000000000    0.8305100000000000 Li
   0.6741300000000000    0.6976440000000000    0.3305100000000000 Li
   0.0235140000000000    0.3258700000000000    0.1694900000000000 Li
   0.3258700000000000    0.3023560000000000    0.6694900000000000 Li
   0.0235140000000000    0.3258700000000000    0.3305100000000000 Li
   0.9764860000000000    0.6741300000000000    0.6694900000000000 Li
   0.6666670000000000    0.3333330000000000    0.7500000000000000 Li
   0.3333330000000000    0.6666670000000000    0.2500000000000000 Li
   0.3333330000000000    0.6666670000000000    0.7500000000000000 Li
   0.6666670000000000    0.3333330000000000    0.2500000000000000 Li
   0.6764240000000000    0.0276440000000000    0.9640180000000000 Li
   0.3235760000000000    0.9723560000000000    0.0359820000000000 Li
   0.3512200000000000    0.3235760000000000    0.9640180000000000 Li
   0.3235760000000000    0.9723560000000000    0.4640180000000000 Li
   0.6487800000000000    0.6764240000000000    0.0359820000000000 Li
   0.6764240000000000    0.0276440000000000    0.5359820000000000 Li
   0.9723560000000000    0.6487800000000000    0.9640180000000000 Li
   0.6487800000000000    0.6764240000000000    0.4640180000000000 Li
   0.0276440000000000    0.3512200000000000    0.0359820000000000 Li
   0.3512200000000000    0.3235760000000000    0.5359820000000000 Li
   0.0276440000000000    0.3512200000000000    0.4640180000000000 Li
   0.9723560000000000    0.6487800000000000    0.5359820000000000 Li
   0.6501560000000000    0.6754019999999999    0.8894080000000000 Be
   0.3498440000000000    0.3245980000000000    0.1105920000000000 Be
   0.0252460000000000    0.3498440000000000    0.8894080000000000 Be
   0.3498440000000000    0.3245980000000000    0.3894070000000000 Be
   0.9747540000000000    0.6501560000000000    0.1105920000000000 Be
   0.6501560000000000    0.6754019999999999    0.6105920000000000 Be
   0.3245980000000000    0.9747540000000000    0.8894080000000000 Be
   0.9747540000000000    0.6501560000000000    0.3894070000000000 Be
   0.6754019999999999    0.0252460000000000    0.1105920000000000 Be
   0.0252460000000000    0.3498440000000000    0.6105920000000000 Be
   0.6754019999999999    0.0252460000000000    0.3894070000000000 Be
   0.3245980000000000    0.9747540000000000    0.6105920000000000 Be
   0.6666670000000000    0.3333330000000000    0.8928320000000000 B
   0.3333330000000000    0.6666670000000000    0.1071680000000000 B
   0.3333330000000000    0.6666670000000000    0.3928320000000000 B
   0.6666670000000000    0.3333330000000000    0.6071680000000000 B
   0.0000000000000000    0.0000000000000000    0.9070790000000000 B
   0.0000000000000000    0.0000000000000000    0.0929210000000000 B
   0.0000000000000000    0.0000000000000000    0.4070790000000000 B
   0.0000000000000000    0.0000000000000000    0.5929210000000000 B
   0.6775840000000000    0.6991849999999999    0.7500000000000000 B
   0.3224160000000000    0.3008150000000000    0.2500000000000000 B
   0.0216010000000000    0.3224160000000000    0.7500000000000000 B
   0.9783990000000000    0.6775840000000000    0.2500000000000000 B
   0.3008150000000000    0.9783990000000000    0.7500000000000000 B
   0.6991849999999999    0.0216010000000000    0.2500000000000000 B
   0.6666670000000000    0.3333330000000000    0.4486250000000000 B
   0.3333330000000000    0.6666670000000000    0.5513749999999999 B
   0.3333330000000000    0.6666670000000000    0.9486250000000001 B
   0.6666670000000000    0.3333330000000000    0.0513750000000000 B
   0.8210470000000000    0.2003030000000000    0.7500000000000000 O
   0.1789530000000000    0.7996970000000000    0.2500000000000000 O
   0.3792560000000000    0.1789530000000000    0.7500000000000000 O
   0.6207440000000000    0.8210470000000000    0.2500000000000000 O
   0.7996970000000000    0.6207440000000000    0.7500000000000000 O
   0.2003030000000000    0.3792560000000000    0.2500000000000000 O
   0.9105810000000000    0.1136950000000000    0.9066500000000000 O
   0.0894190000000000    0.8863050000000000    0.0933500000000000 O
   0.2031140000000000    0.0894190000000000    0.9066500000000000 O
   0.0894190000000000    0.8863050000000000    0.4066500000000000 O
   0.7968860000000000    0.9105810000000000    0.0933500000000000 O
   0.9105810000000000    0.1136950000000000    0.5933500000000000 O
   0.8863050000000000    0.7968860000000000    0.9066500000000000 O
   0.7968860000000000    0.9105810000000000    0.4066500000000000 O
   0.1136950000000000    0.2031140000000000    0.0933500000000000 O
   0.2031140000000000    0.0894190000000000    0.5933500000000000 O
   0.1136950000000000    0.2031140000000000    0.4066500000000000 O
   0.8863050000000000    0.7968860000000000    0.5933500000000000 O
   0.6079760000000000    0.7386570000000000    0.8115170000000000 O
   0.3920240000000000    0.2613430000000000    0.1884830000000000 O
   0.1306810000000000    0.3920240000000000    0.8115170000000000 O
   0.3920240000000000    0.2613430000000000    0.3115170000000000 O
   0.8693190000000000    0.6079760000000000    0.1884830000000000 O
   0.6079760000000000    0.7386570000000000    0.6884830000000000 O
   0.2613430000000000    0.8693190000000000    0.8115170000000000 O
   0.8693190000000000    0.6079760000000000    0.3115170000000000 O
   0.7386570000000000    0.1306810000000000    0.1884830000000000 O
   0.1306810000000000    0.3920240000000000    0.6884830000000000 O
   0.7386570000000000    0.1306810000000000    0.3115170000000000 O
   0.2613430000000000    0.8693190000000000    0.6884830000000000 O
   0.8711300000000000    0.4324490000000000    0.8923050000000000 O
   0.1288700000000000    0.5675510000000000    0.1076950000000000 O
   0.5613190000000000    0.1288700000000000    0.8923050000000000 O
   0.1288700000000000    0.5675510000000000    0.3923050000000000 O
   0.4386810000000000    0.8711300000000000    0.1076950000000000 O
   0.8711300000000000    0.4324490000000000    0.6076950000000000 O
   0.5675510000000000    0.4386810000000000    0.8923050000000000 O
   0.4386810000000000    0.8711300000000000    0.3923050000000000 O
   0.4324490000000000    0.5613190000000000    0.1076950000000000 O
   0.5613190000000000    0.1288700000000000    0.6076950000000000 O
   0.4324490000000000    0.5613190000000000    0.3923050000000000 O
   0.5675510000000000    0.4386810000000000    0.6076950000000000 O
   0.5344110000000000    0.7332310000000000    0.9497790000000000 O
   0.4655890000000000    0.2667690000000000    0.0502210000000000 O
   0.1988200000000000    0.4655890000000000    0.9497790000000000 O
   0.4655890000000000    0.2667690000000000    0.4497790000000000 O
   0.8011800000000000    0.5344110000000000    0.0502210000000000 O
   0.5344110000000000    0.7332310000000000    0.5502210000000000 O
   0.2667690000000000    0.8011800000000000    0.9497790000000000 O
   0.8011800000000000    0.5344110000000000    0.4497790000000000 O
   0.7332310000000000    0.1988200000000000    0.0502210000000000 O
   0.1988200000000000    0.4655890000000000    0.5502210000000000 O
   0.7332310000000000    0.1988200000000000    0.4497790000000000 O
   0.2667690000000000    0.8011800000000000    0.5502210000000000 O
