Li6 Al2 B4 O12
1.0
  -4.9268299999999998    0.0000000000000000    0.0000000000000000
   0.0682910000000000    6.6275000000000004    0.0000000000000000
  -0.0159950000000000   -2.8137500000000002   -7.7506430000000002
Li Al B O
6 2 4 12
direct
   0.6618309999999999    0.4049770000000000    0.5768610000000000 Li
   0.3381690000000000    0.5950230000000000    0.4231390000000000 Li
   0.1498230000000000    0.5576520000000000    0.7222290000000000 Li
   0.8501770000000000    0.4423480000000000    0.2777710000000000 Li
   0.8772130000000000    0.2617960000000000    0.8589599999999999 Li
   0.1227870000000000    0.7382040000000000    0.1410400000000000 Li
   0.6204350000000000    0.0452890000000000    0.2269490000000000 Al
   0.3795650000000000    0.9547110000000000    0.7730510000000000 Al
   0.1483940000000000    0.1780150000000000    0.4051840000000000 B
   0.8516060000000000    0.8219850000000000    0.5948160000000000 B
   0.6611050000000001    0.6886790000000000    0.9254180000000000 B
   0.3388950000000000    0.3113210000000000    0.0745820000000000 B
   0.7540040000000000    0.7974670000000000    0.0927550000000000 O
   0.2459960000000000    0.2025330000000000    0.9072450000000000 O
   0.8640270000000000    0.1778660000000000    0.3872830000000000 O
   0.1359730000000000    0.8221340000000000    0.6127170000000000 O
   0.2793420000000000    0.3479650000000000    0.5178100000000000 O
   0.7206580000000000    0.6520350000000000    0.4821900000000000 O
   0.8018340000000000    0.5232700000000000    0.8158090000000000 O
   0.1981660000000000    0.4767300000000000    0.1841910000000000 O
   0.4136180000000000    0.7587680000000000    0.8778380000000000 O
   0.5863820000000000    0.2412320000000000    0.1221620000000000 O
   0.2905770000000000    0.0015720000000000    0.2946770000000000 O
   0.7094230000000000    0.9984280000000000    0.7053230000000000 O
