Li8 Bi8 B16 O40
1.0
   4.4245530000000004    0.0000000000000000    0.0000000000000000
   0.0000000000000000   11.5672119999999996    0.0000000000000000
   0.0000000000000000    0.0000000000000000   13.5169230000000002
Li Bi B O
8 8 16 40
direct
   0.7092280000000000    0.9057870000000000    0.0938930000000000 Li
   0.2715120000000000    0.7378169999999999    0.1550620000000000 Li
   0.7715120000000000    0.2378170000000000    0.3449380000000000 Li
   0.2092280000000000    0.4057870000000000    0.4061070000000000 Li
   0.7907720000000000    0.9057870000000000    0.5938930000000000 Li
   0.2284880000000000    0.7378169999999999    0.6550620000000000 Li
   0.7284880000000000    0.2378170000000000    0.8449380000000000 Li
   0.2907720000000000    0.4057870000000000    0.9061070000000000 Li
   0.8314450000000000    0.6401410000000000    0.0259700000000000 Bi
   0.2032490000000000    0.0041910000000000    0.2208200000000000 Bi
   0.7032490000000000    0.5041909999999999    0.2791800000000000 Bi
   0.3314450000000000    0.1401410000000000    0.4740300000000000 Bi
   0.6685550000000000    0.6401410000000000    0.5259700000000000 Bi
   0.2967510000000000    0.0041910000000000    0.7208200000000000 Bi
   0.7967510000000000    0.5041909999999999    0.7791800000000000 Bi
   0.1685550000000000    0.1401410000000000    0.9740300000000000 Bi
   0.8060540000000000    0.3736130000000000    0.0179690000000000 B
   0.2977100000000000    0.4537530000000000    0.1073900000000000 B
   0.7202020000000000    0.1949760000000000    0.1396800000000000 B
   0.2171470000000000    0.2739300000000000    0.2315760000000000 B
   0.7171470000000000    0.7739300000000000    0.2684240000000000 B
   0.2202020000000000    0.6949760000000000    0.3603200000000000 B
   0.7977100000000000    0.9537530000000000    0.3926100000000000 B
   0.3060540000000000    0.8736130000000000    0.4820310000000000 B
   0.6939460000000000    0.3736130000000000    0.5179690000000000 B
   0.2022900000000000    0.4537530000000000    0.6073900000000000 B
   0.7797980000000000    0.1949760000000000    0.6396800000000000 B
   0.2828530000000000    0.2739300000000000    0.7315760000000000 B
   0.7828530000000000    0.7739300000000000    0.7684240000000000 B
   0.2797980000000000    0.6949760000000000    0.8603200000000000 B
   0.7022900000000000    0.9537530000000000    0.8926100000000000 B
   0.1939460000000000    0.8736130000000000    0.9820310000000000 B
   0.1321340000000000    0.3894970000000000    0.0337410000000000 O
   0.2721830000000000    0.8960390000000000    0.0892940000000000 O
   0.7374039999999999    0.2490800000000000    0.0359730000000000 O
   0.6328310000000000    0.4545950000000000    0.0813510000000000 O
   0.2084500000000000    0.5744740000000000    0.1185820000000000 O
   0.8272200000000000    0.0738440000000000    0.1262340000000000 O
   0.3914040000000000    0.1923210000000000    0.1670140000000000 O
   0.2866040000000000    0.3991190000000000    0.2114510000000000 O
   0.7765450000000000    0.7526850000000000    0.1615120000000000 O
   0.8899740000000000    0.2587860000000000    0.2133030000000000 O
   0.3899740000000000    0.7587860000000000    0.2866970000000000 O
   0.2765450000000000    0.2526850000000000    0.3384880000000000 O
   0.7866040000000000    0.8991190000000000    0.2885490000000000 O
   0.8914040000000000    0.6923210000000000    0.3329860000000000 O
   0.3272200000000000    0.5738440000000000    0.3737660000000000 O
   0.7084500000000000    0.0744740000000000    0.3814180000000000 O
   0.1328310000000000    0.9545950000000000    0.4186490000000000 O
   0.2374040000000000    0.7490800000000000    0.4640270000000000 O
   0.7721830000000000    0.3960390000000000    0.4107060000000000 O
   0.6321340000000000    0.8894970000000000    0.4662590000000000 O
   0.3678660000000000    0.3894970000000000    0.5337410000000000 O
   0.2278170000000000    0.8960390000000000    0.5892940000000000 O
   0.7625960000000001    0.2490800000000000    0.5359730000000000 O
   0.8671690000000000    0.4545950000000000    0.5813510000000000 O
   0.2915500000000000    0.5744740000000000    0.6185820000000000 O
   0.6727800000000000    0.0738440000000000    0.6262340000000000 O
   0.1085960000000000    0.1923210000000000    0.6670140000000000 O
   0.2133960000000000    0.3991190000000000    0.7114509999999999 O
   0.7234550000000000    0.7526850000000000    0.6615120000000000 O
   0.6100260000000000    0.2587860000000000    0.7133030000000000 O
   0.1100260000000000    0.7587860000000000    0.7866970000000000 O
   0.2234550000000000    0.2526850000000000    0.8384880000000000 O
   0.7133960000000000    0.8991190000000000    0.7885490000000001 O
   0.6085960000000000    0.6923210000000000    0.8329860000000000 O
   0.1727800000000000    0.5738440000000000    0.8737660000000000 O
   0.7915500000000000    0.0744740000000000    0.8814180000000000 O
   0.3671690000000000    0.9545950000000000    0.9186490000000000 O
   0.2625960000000000    0.7490800000000000    0.9640270000000000 O
   0.7278170000000000    0.3960390000000000    0.9107060000000000 O
   0.8678660000000000    0.8894970000000000    0.9662590000000000 O
