ALGO = Fast
EDIFF = 0.00075
ENCUT = 520
IBRION = 2
ISIF = 3
ISMEAR = -5
ISPIN = 2
LASPH = True
LORBIT = 11
LREAL = Auto
LWAVE = False
MAGMOM = 2*0.0 1*0.003 1*0.001 1*0.006 1*0.0 1*0.006 1*0.0 1*-0.003 1*0.0 1*0.001 1*-0.016 1*0.003 1*-0.016 1*0.003
NELM = 100
NSW = 99
PREC = Accurate
SIGMA = 0.05
