Li6 Si2 Sn2 B2 O14
1.0
   6.5748899999999999    0.0000000000000000    0.0000000000000000
   0.0000000000000000    5.1387950000000000    0.0000000000000000
   0.0000000000000000    0.8094560000000000    8.5063730000000000
Li Si Sn B O
6 2 2 2 14
direct
   0.7500000000000000    0.2506380000000000    0.9069390000000001 Li
   0.9917310000000000    0.7474290000000000    0.7631110000000000 Li
   0.5082690000000000    0.7474290000000000    0.7631110000000000 Li
   0.4917310000000000    0.2525710000000000    0.2368890000000000 Li
   0.0082690000000000    0.2525710000000000    0.2368890000000000 Li
   0.2500000000000000    0.7493620000000000    0.0930610000000000 Li
   0.7500000000000000    0.2687330000000000    0.5802490000000000 Si
   0.2500000000000000    0.7312670000000000    0.4197510000000000 Si
   0.2500000000000000    0.2094110000000000    0.6726680000000000 Sn
   0.7500000000000000    0.7905890000000000    0.3273320000000000 Sn
   0.2500000000000000    0.2887040000000000    0.9651020000000000 B
   0.7500000000000000    0.7112960000000000    0.0348980000000000 B
   0.7500000000000000    0.6416720000000000    0.8859669999999999 O
   0.2500000000000000    0.0339530000000000    0.9186470000000000 O
   0.2500000000000000    0.4856230000000000    0.8356680000000000 O
   0.9397200000000000    0.1672140000000000    0.6952260000000000 O
   0.5602800000000000    0.1672140000000000    0.6952260000000000 O
   0.7500000000000000    0.5914590000000000    0.5466360000000000 O
   0.2500000000000000    0.8445420000000000    0.5927789999999999 O
   0.7500000000000000    0.1554580000000000    0.4072210000000000 O
   0.2500000000000000    0.4085410000000000    0.4533640000000000 O
   0.4397200000000000    0.8327860000000000    0.3047740000000000 O
   0.0602800000000000    0.8327860000000000    0.3047740000000000 O
   0.7500000000000000    0.5143770000000000    0.1643320000000000 O
   0.7500000000000000    0.9660470000000000    0.0813530000000000 O
   0.2500000000000000    0.3583280000000000    0.1140330000000000 O
