pymatgen with grid density = 1176 / number of atoms
0
Monkhorst
2 2 2
