Li4 U4 P4 O24
1.0
   5.1225829999999997    0.0000000000000000    0.0000000000000000
   2.2167960000000000    9.8273539999999997    0.0000000000000000
   2.4559000000000002    4.3178440000000000    9.7826690000000003
Li U P O
4 4 4 24
direct
   0.5652070000000000    0.9072400000000000    0.6953210000000000 Li
   0.5530380000000000    0.3833350000000000    0.7638239999999999 Li
   0.4469620000000000    0.6166650000000000    0.2361760000000000 Li
   0.4347930000000000    0.0927600000000000    0.3046790000000000 Li
   0.4896630000000000    0.2788670000000000    0.4835810000000000 U
   0.5103370000000000    0.7211330000000000    0.5164190000000000 U
   0.9908330000000000    0.7932920000000000    0.9793260000000000 U
   0.0091670000000000    0.2067080000000000    0.0206740000000000 U
   0.0770400000000000    0.8893690000000000    0.2649000000000000 P
   0.9229600000000000    0.1106310000000000    0.7351000000000000 P
   0.9462600000000000    0.5854670000000000    0.7785680000000000 P
   0.0537400000000000    0.4145330000000000    0.2214320000000000 P
   0.1656390000000000    0.0395690000000000    0.2341180000000000 O
   0.6746000000000000    0.1834300000000000    0.1213470000000000 O
   0.2419160000000000    0.2966540000000000    0.3246300000000000 O
   0.3417800000000000    0.2335000000000000    0.9181610000000000 O
   0.2421590000000000    0.5679540000000000    0.7044600000000000 O
   0.3147880000000000    0.8905410000000000    0.5296520000000000 O
   0.3254000000000000    0.8165700000000000    0.8786530000000000 O
   0.2077530000000000    0.1257040000000000    0.6485030000000001 O
   0.7580840000000000    0.7033460000000000    0.6753700000000000 O
   0.0659080000000000    0.8983970000000000    0.1210880000000000 O
   0.7578410000000000    0.4320460000000000    0.2955400000000000 O
   0.9404690000000000    0.6417750000000000    0.8894110000000000 O
   0.7206669999999999    0.5544270000000000    0.5095600000000000 O
   0.6582200000000000    0.7665000000000000    0.0818390000000000 O
   0.9340920000000000    0.1016030000000000    0.8789120000000000 O
   0.1597050000000000    0.5678960000000000    0.1563560000000000 O
   0.0595310000000000    0.3582250000000000    0.1105890000000000 O
   0.8402950000000000    0.4321040000000000    0.8436439999999999 O
   0.7922470000000000    0.8742960000000000    0.3514970000000000 O
   0.8343610000000000    0.9604310000000000    0.7658820000000000 O
   0.2793330000000000    0.4455730000000000    0.4904400000000000 O
   0.2853690000000000    0.7562020000000000    0.3385740000000000 O
   0.6852120000000000    0.1094590000000000    0.4703480000000000 O
   0.7146310000000000    0.2437980000000000    0.6614260000000000 O
