K4 Li4 P4 H8 O16 F4
1.0
   7.5988680000000004    0.0000000000000000    0.0000000000000000
   0.0000000000000000    5.4899509999999996    0.0000000000000000
   0.0000000000000000    3.8978320000000002   11.9502319999999997
K Li P H O F
4 4 4 8 16 4
direct
   0.7254230000000000    0.6763590000000000    0.6534710000000000 K
   0.2254230000000000    0.3236410000000000    0.8465290000000000 K
   0.2745770000000000    0.3236410000000000    0.3465290000000000 K
   0.7745770000000000    0.6763590000000000    0.1534710000000000 K
   0.5414310000000000    0.8185950000000000    0.3635940000000000 Li
   0.0414310000000000    0.1814050000000000    0.1364060000000000 Li
   0.4585690000000000    0.1814050000000000    0.6364060000000000 Li
   0.9585690000000000    0.8185950000000000    0.8635940000000000 Li
   0.7739140000000000    0.2621620000000000    0.9471850000000001 P
   0.2739140000000000    0.7378380000000000    0.5528149999999999 P
   0.2260860000000000    0.7378380000000000    0.0528150000000000 P
   0.7260860000000000    0.2621620000000000    0.4471850000000000 P
   0.5830430000000000    0.1530630000000000    0.1617860000000000 H
   0.0830430000000000    0.8469370000000001    0.3382140000000000 H
   0.4169570000000000    0.8469370000000001    0.8382140000000000 H
   0.9169570000000000    0.1530630000000000    0.6617860000000000 H
   0.3921630000000000    0.0405180000000000    0.1583620000000000 H
   0.8921630000000000    0.9594819999999999    0.3416380000000000 H
   0.6078370000000000    0.9594819999999999    0.8416380000000000 H
   0.1078370000000000    0.0405180000000000    0.6583620000000000 H
   0.7821460000000000    0.0039470000000000    0.9245580000000000 O
   0.2821460000000000    0.9960530000000000    0.5754420000000000 O
   0.2178540000000000    0.9960530000000000    0.0754420000000000 O
   0.7178540000000000    0.0039470000000000    0.4245580000000000 O
   0.8760800000000000    0.4761980000000000    0.8641750000000000 O
   0.3760800000000000    0.5238020000000000    0.6358250000000000 O
   0.1239200000000000    0.5238020000000000    0.1358250000000000 O
   0.6239200000000000    0.4761980000000000    0.3641750000000000 O
   0.7991790000000000    0.2391510000000000    0.0707850000000000 O
   0.2991790000000000    0.7608490000000000    0.4292150000000000 O
   0.2008210000000000    0.7608490000000000    0.9292150000000000 O
   0.7008210000000000    0.2391510000000000    0.5707850000000000 O
   0.4863320000000000    0.0614730000000000    0.2102330000000000 O
   0.9863320000000000    0.9385270000000000    0.2897670000000000 O
   0.5136680000000000    0.9385270000000000    0.7897670000000000 O
   0.0136680000000000    0.0614730000000000    0.7102330000000000 O
   0.5686970000000000    0.3453130000000000    0.9230030000000000 F
   0.0686970000000000    0.6546870000000000    0.5769970000000000 F
   0.4313030000000000    0.6546870000000000    0.0769970000000000 F
   0.9313030000000000    0.3453130000000000    0.4230030000000000 F
