Li8 Ga6 Si6 I2 O24
1.0
   8.7410569999999996    0.0000000000000000    0.0000000000000000
   0.0000000000000000    8.7410569999999996    0.0000000000000000
   0.0000000000000000    0.0000000000000000    8.7410569999999996
Li Ga Si I O
8 6 6 2 24
direct
   0.1889810000000000    0.8110190000000000    0.8110190000000000 Li
   0.8110190000000000    0.1889810000000000    0.8110190000000000 Li
   0.6889810000000000    0.3110190000000000    0.3110190000000000 Li
   0.1889810000000000    0.1889810000000000    0.1889810000000000 Li
   0.8110190000000000    0.8110190000000000    0.1889810000000000 Li
   0.6889810000000000    0.6889810000000000    0.6889810000000000 Li
   0.3110190000000000    0.3110190000000000    0.6889810000000000 Li
   0.3110190000000000    0.6889810000000000    0.3110190000000000 Li
   0.0000000000000000    0.7500000000000000    0.5000000000000000 Ga
   0.2500000000000000    0.5000000000000000    0.0000000000000000 Ga
   0.5000000000000000    0.0000000000000000    0.7500000000000000 Ga
   0.5000000000000000    0.0000000000000000    0.2500000000000000 Ga
   0.0000000000000000    0.2500000000000000    0.5000000000000000 Ga
   0.7500000000000000    0.5000000000000000    0.0000000000000000 Ga
   0.0000000000000000    0.5000000000000000    0.2500000000000000 Si
   0.5000000000000000    0.7500000000000000    0.0000000000000000 Si
   0.5000000000000000    0.2500000000000000    0.0000000000000000 Si
   0.0000000000000000    0.5000000000000000    0.7500000000000000 Si
   0.7500000000000000    0.0000000000000000    0.5000000000000000 Si
   0.2500000000000000    0.0000000000000000    0.5000000000000000 Si
   0.0000000000000000    0.0000000000000000    0.0000000000000000 I
   0.5000000000000000    0.5000000000000000    0.5000000000000000 I
   0.1300020000000000    0.5913100000000000    0.8513660000000000 O
   0.0913100000000000    0.6300020000000000    0.3513660000000000 O
   0.4086900000000000    0.8513660000000000    0.8699980000000000 O
   0.4086900000000000    0.1486340000000000    0.1300020000000000 O
   0.1486340000000000    0.8699980000000000    0.5913100000000000 O
   0.5913100000000000    0.8513660000000000    0.1300020000000000 O
   0.3513660000000000    0.0913100000000000    0.6300020000000000 O
   0.9086900000000000    0.3699980000000000    0.3513660000000000 O
   0.5913100000000000    0.1486340000000000    0.8699980000000000 O
   0.3699980000000000    0.6486340000000000    0.0913100000000000 O
   0.3513660000000000    0.9086900000000000    0.3699980000000000 O
   0.0913100000000000    0.3699980000000000    0.6486340000000000 O
   0.8699980000000000    0.5913100000000000    0.1486340000000000 O
   0.6486340000000000    0.9086900000000000    0.6300020000000000 O
   0.9086900000000000    0.6300020000000000    0.6486340000000000 O
   0.8699980000000000    0.4086900000000000    0.8513660000000000 O
   0.6300020000000000    0.3513660000000000    0.0913100000000000 O
   0.6486340000000000    0.0913100000000000    0.3699980000000000 O
   0.8513660000000000    0.8699980000000000    0.4086900000000000 O
   0.3699980000000000    0.3513660000000000    0.9086900000000000 O
   0.1486340000000000    0.1300020000000000    0.4086900000000000 O
   0.1300020000000000    0.4086900000000000    0.1486340000000000 O
   0.6300020000000000    0.6486340000000000    0.9086900000000000 O
   0.8513660000000000    0.1300020000000000    0.5913100000000000 O
