ALGO = Fast
EDIFF = 0.0032
ENCUT = 520
IBRION = 2
ISIF = 3
ISMEAR = -5
ISPIN = 2
LASPH = True
LMAXMIX = 6
LORBIT = 11
LREAL = Auto
LWAVE = False
MAGMOM = 4*0.001 4*0.004 4*0.0 4*0.001 8*0.0 4*0.004 8*0.01 4*0.0 4*0.739 4*0.0 8*0.001 4*0.85 4*0.004
NELM = 100
NSW = 99
PREC = Accurate
SIGMA = 0.05
