Li8 Sb8 S16 O64
1.0
   9.7045919999999999    0.0000000000000000    0.0000000000000000
   0.0000000000000000    9.8198500000000006    0.0000000000000000
   0.0000000000000000    0.0528500000000000   14.5675360000000005
Li Sb S O
8 8 16 64
direct
   0.7946160000000000    0.2146840000000000    0.6312449999999999 Li
   0.2053840000000000    0.2146840000000000    0.1312450000000000 Li
   0.7022290000000000    0.2908440000000000    0.1283080000000000 Li
   0.2977710000000000    0.2908440000000000    0.6283080000000000 Li
   0.3091460000000000    0.7755980000000000    0.8713410000000000 Li
   0.6908540000000000    0.7755980000000000    0.3713410000000000 Li
   0.9823030000000000    0.9521610000000000    0.3706780000000000 Li
   0.0176970000000000    0.9521610000000000    0.8706780000000000 Li
   0.6375750000000000    0.1393040000000000    0.8757580000000000 Sb
   0.3624250000000000    0.1393040000000000    0.3757580000000000 Sb
   0.1387040000000000    0.3691300000000000    0.8733970000000000 Sb
   0.8612960000000000    0.3691300000000000    0.3733970000000000 Sb
   0.6494940000000000    0.6391140000000000    0.6282830000000000 Sb
   0.3505060000000000    0.6391140000000000    0.1282830000000000 Sb
   0.1538930000000000    0.8528210000000001    0.6195590000000000 Sb
   0.8461070000000001    0.8528210000000001    0.1195590000000000 Sb
   0.6811110000000000    0.0689540000000000    0.2677010000000000 S
   0.3188890000000000    0.0689540000000000    0.7677010000000000 S
   0.0617360000000000    0.1549510000000000    0.5133000000000000 S
   0.9382640000000000    0.1549510000000000    0.0133000000000000 S
   0.5632420000000000    0.3421680000000000    0.5172380000000000 S
   0.4367580000000000    0.3421680000000000    0.0172380000000000 S
   0.8252920000000000    0.4234680000000000    0.7693100000000000 S
   0.1747080000000000    0.4234680000000000    0.2693100000000000 S
   0.3255340000000000    0.5698160000000000    0.7316350000000000 S
   0.6744660000000000    0.5698160000000000    0.2316350000000000 S
   0.0676440000000000    0.6683330000000000    0.9818540000000000 S
   0.9323560000000000    0.6683330000000000    0.4818540000000000 S
   0.5617390000000000    0.8443440000000000    0.9883830000000000 S
   0.4382610000000000    0.8443440000000000    0.4883830000000000 S
   0.1723970000000000    0.9304880000000000    0.2317190000000000 S
   0.8276030000000000    0.9304880000000000    0.7317190000000000 S
   0.0570410000000000    0.9994960000000001    0.5197270000000001 O
   0.9429590000000000    0.9994960000000001    0.0197270000000000 O
   0.7709540000000000    0.0236640000000000    0.6635130000000000 O
   0.2290460000000000    0.0236640000000000    0.1635130000000000 O
   0.2930730000000000    0.0224960000000000    0.6706640000000000 O
   0.7069270000000000    0.0224960000000000    0.1706640000000000 O
   0.5280350000000000    0.0583210000000000    0.2833390000000000 O
   0.4719650000000000    0.0583210000000000    0.7833390000000000 O
   0.0010750000000000    0.1807800000000000    0.9204540000000000 O
   0.9989250000000000    0.1807800000000000    0.4204540000000000 O
   0.7912890000000000    0.2012650000000000    0.0122320000000000 O
   0.2087110000000000    0.2012650000000000    0.5122320000000000 O
   0.7237749999999999    0.2148350000000000    0.2692730000000000 O
   0.2762250000000000    0.2148350000000000    0.7692730000000000 O
   0.9876980000000000    0.2192000000000000    0.5879520000000000 O
   0.0123020000000000    0.2192000000000000    0.0879520000000000 O
   0.4887680000000000    0.2775850000000000    0.5929060000000000 O
   0.5112320000000000    0.2775850000000000    0.0929060000000000 O
   0.7861460000000000    0.2753420000000000    0.7666840000000000 O
   0.2138540000000000    0.2753420000000000    0.2666840000000000 O
   0.7096340000000000    0.2947310000000000    0.5154510000000000 O
   0.2903660000000000    0.2947310000000000    0.0154510000000000 O
   0.5007080000000000    0.3103740000000000    0.9255370000000001 O
   0.4992920000000000    0.3103740000000000    0.4255370000000000 O
   0.9838720000000000    0.4292330000000000    0.7766370000000000 O
   0.0161280000000000    0.4292330000000000    0.2766370000000000 O
   0.2037370000000000    0.4740900000000000    0.1721230000000000 O
   0.7962630000000001    0.4740900000000000    0.6721230000000000 O
   0.2581160000000000    0.4831560000000000    0.6644030000000000 O
   0.7418840000000000    0.4831560000000000    0.1644030000000000 O
   0.5604479999999999    0.4957110000000000    0.5251250000000000 O
   0.4395520000000000    0.4957110000000000    0.0251250000000000 O
   0.0518110000000000    0.5169930000000000    0.9652930000000000 O
   0.9481889999999999    0.5169930000000000    0.4652930000000000 O
   0.2419180000000000    0.5004400000000000    0.3394390000000000 O
   0.7580820000000000    0.5004400000000000    0.8394390000000000 O
   0.2854340000000000    0.5304770000000000    0.8295169999999999 O
   0.7145660000000000    0.5304770000000000    0.3295170000000000 O
   0.4786000000000000    0.5638570000000001    0.7264830000000000 O
   0.5214000000000000    0.5638570000000001    0.2264830000000000 O
   0.0046810000000000    0.6920610000000000    0.5706820000000000 O
   0.9953190000000000    0.6920610000000000    0.0706820000000000 O
   0.2189270000000000    0.7006930000000000    0.9947420000000000 O
   0.7810730000000000    0.7006930000000000    0.4947420000000000 O
   0.2809100000000000    0.7166880000000000    0.7256460000000000 O
   0.7190900000000000    0.7166880000000000    0.2256460000000000 O
   0.0156690000000000    0.7502710000000000    0.9059330000000000 O
   0.9843310000000000    0.7502710000000000    0.4059330000000000 O
   0.4988960000000000    0.7772350000000000    0.9102590000000000 O
   0.5011040000000000    0.7772350000000000    0.4102590000000000 O
   0.2214190000000000    0.7891730000000000    0.2188950000000000 O
   0.7785810000000000    0.7891730000000000    0.7188950000000000 O
   0.2898950000000000    0.8011370000000000    0.4989780000000000 O
   0.7101050000000000    0.8011370000000000    0.9989780000000000 O
   0.5113100000000000    0.8173380000000000    0.5765720000000000 O
   0.4886900000000000    0.8173380000000000    0.0765720000000000 O
   0.0159950000000000    0.9312390000000000    0.2320480000000000 O
   0.9840050000000000    0.9312390000000000    0.7320480000000000 O
   0.2079860000000000    0.9740730000000000    0.3293480000000000 O
   0.7920140000000000    0.9740730000000000    0.8293480000000000 O
   0.7561040000000000    0.9837430000000000    0.3350530000000000 O
   0.2438960000000000    0.9837430000000000    0.8350530000000000 O
   0.5585510000000000    0.9990280000000000    0.9764620000000001 O
   0.4414490000000000    0.9990280000000000    0.4764620000000000 O
