ALGO = Fast
EDIFF = 0.00165
ENCUT = 520
IBRION = 2
ISIF = 3
ISMEAR = -5
ISPIN = 2
LASPH = True
LMAXMIX = 6
LORBIT = 11
LREAL = Auto
LWAVE = False
MAGMOM = 2*-0.001 5*-0.004 2*0.002 4*-0.0 3*-0.004 1*-0.001 2*0.009 1*0.125 1*0.136 1*0.137 2*0.136 4*0.258 2*0.205 1*0.126 1*0.125 1*0.126
NELM = 100
NSW = 99
PREC = Accurate
SIGMA = 0.05
