Rb2 Li14 Pr3 O14
1.0
  -3.7475619999999998    4.1896599999999999    6.8491499999999998
   3.7475619999999998   -4.1896599999999999    6.8491499999999998
   3.7475619999999998    4.1896599999999999   -6.8491499999999998
Rb Li Pr O
2 14 3 14
direct
   0.5000000000000000    0.7622440000000000    0.2622440000000000 Rb
   0.5000000000000000    0.2377560000000000    0.7377560000000000 Rb
   0.7130360000000000    0.1452490000000000    0.1237810000000000 Li
   0.9785320000000000    0.8547510000000000    0.5677870000000000 Li
   0.0214680000000000    0.5892539999999999    0.8762190000000000 Li
   0.2869640000000000    0.4107460000000000    0.4322130000000000 Li
   0.0214680000000000    0.1452490000000000    0.4322130000000000 Li
   0.1586760000000000    0.5000000000000000    0.6586760000000000 Li
   0.8413240000000000    0.5000000000000000    0.3413240000000000 Li
   0.4142570000000000    0.7685810000000000    0.6456750000000000 Li
   0.5857430000000000    0.2314190000000000    0.3543250000000000 Li
   0.8770940000000000    0.2314190000000000    0.6456750000000000 Li
   0.1229060000000000    0.7685810000000000    0.3543250000000000 Li
   0.7130360000000000    0.5892539999999999    0.5677870000000000 Li
   0.2869640000000000    0.8547510000000000    0.8762190000000000 Li
   0.9785320000000000    0.4107460000000000    0.1237810000000000 Li
   0.0000000000000000    0.0000000000000000    0.0000000000000000 Pr
   0.2720910000000000    0.2720910000000000    0.0000000000000000 Pr
   0.7279090000000000    0.7279090000000000    0.0000000000000000 Pr
   0.0580430000000000    0.8677760000000000    0.1902680000000000 O
   0.4016640000000000    0.6241430000000000    0.7775210000000000 O
   0.8466230000000000    0.6241430000000000    0.2224790000000000 O
   0.5983360000000000    0.3758570000000000    0.2224790000000000 O
   0.1533770000000000    0.3758570000000000    0.7775210000000000 O
   0.7589390000000000    0.0639970000000000    0.3050580000000000 O
   0.2410610000000000    0.5461190000000000    0.3050580000000000 O
   0.2410610000000000    0.9360030000000000    0.6949419999999999 O
   0.7589390000000000    0.4538810000000000    0.6949419999999999 O
   0.0000000000000000    0.6938230000000000    0.6938230000000000 O
   0.0000000000000000    0.3061770000000000    0.3061770000000000 O
   0.6775080000000000    0.8677760000000000    0.8097320000000000 O
   0.3224920000000000    0.1322240000000000    0.1902680000000000 O
   0.9419570000000000    0.1322240000000000    0.8097320000000000 O
