pymatgen with grid density = 1210 / number of atoms
0
Gamma
2 2 1
