Na6 Li2 Mg8 Si24 O60
1.0
   5.0558610000000002   -8.8481009999999998    0.0000000000000000
   5.0558610000000002    8.8481009999999998    0.0000000000000000
   0.0000000000000000    0.0000000000000000   14.6686589999999999
Na Li Mg Si O
6 2 8 24 60
direct
   0.0000000000000000    0.0000000000000000    0.9731109999999999 Na
   0.2893350000000000    0.6134290000000000    0.4656600000000000 Na
   0.3865710000000000    0.7106650000000000    0.9656600000000000 Na
   0.6134290000000000    0.2893350000000000    0.9656600000000000 Na
   0.7106650000000000    0.3865710000000000    0.4656600000000000 Na
   0.0000000000000000    0.0000000000000000    0.4731110000000000 Na
   0.0000000000000000    0.5000000000000000    0.2473300000000000 Li
   0.5000000000000000    0.0000000000000000    0.7473300000000000 Li
   0.5000000000000000    0.5000000000000000    0.2426940000000000 Mg
   0.0000000000000000    0.5000000000000000    0.7524680000000000 Mg
   0.3366170000000000    0.6866210000000000    0.7379000000000000 Mg
   0.3133790000000000    0.6633829999999999    0.2379000000000000 Mg
   0.5000000000000000    0.0000000000000000    0.2524680000000000 Mg
   0.6633829999999999    0.3133790000000000    0.7379000000000000 Mg
   0.6866210000000000    0.3366170000000000    0.2379000000000000 Mg
   0.5000000000000000    0.5000000000000000    0.7426940000000000 Mg
   0.1122880000000000    0.3646780000000000    0.8935660000000000 Si
   0.0970780000000000    0.3628450000000000    0.0922630000000000 Si
   0.1063590000000000    0.1275730000000000    0.6790330000000000 Si
   0.1932800000000000    0.2611210000000000    0.3143410000000000 Si
   0.6371550000000000    0.9029220000000000    0.5922630000000000 Si
   0.6353220000000001    0.8877119999999999    0.3935660000000000 Si
   0.7388790000000000    0.8067200000000000    0.8143410000000000 Si
   0.8724270000000000    0.8936410000000000    0.1790330000000000 Si
   0.2469970000000000    0.8839250000000000    0.8880930000000000 Si
   0.2457030000000000    0.8867800000000000    0.0984430000000000 Si
   0.8867800000000000    0.2457030000000000    0.5984429999999999 Si
   0.8839250000000000    0.2469970000000000    0.3880930000000000 Si
   0.1132200000000000    0.7542970000000000    0.5984429999999999 Si
   0.1160750000000000    0.7530030000000000    0.3880930000000000 Si
   0.7542970000000000    0.1132200000000000    0.0984430000000000 Si
   0.7530030000000000    0.1160750000000000    0.8880930000000000 Si
   0.2611210000000000    0.1932800000000000    0.8143410000000000 Si
   0.1275730000000000    0.1063590000000000    0.1790330000000000 Si
   0.3628450000000000    0.0970780000000000    0.5922630000000000 Si
   0.3646780000000000    0.1122880000000000    0.3935660000000000 Si
   0.8936410000000000    0.8724270000000000    0.6790330000000000 Si
   0.8067200000000000    0.7388790000000000    0.3143410000000000 Si
   0.8877119999999999    0.6353220000000001    0.8935660000000000 Si
   0.9029220000000000    0.6371550000000000    0.0922630000000000 Si
   0.1635870000000000    0.2350420000000000    0.8890020000000000 O
   0.1305220000000000    0.2186520000000000    0.0953810000000000 O
   0.0254720000000000    0.2214970000000000    0.6361560000000001 O
   0.0243130000000000    0.2247040000000000    0.3522010000000000 O
   0.3412520000000000    0.4824810000000000    0.5738340000000000 O
   0.3499110000000000    0.5139770000000000    0.6633260000000000 O
   0.3198700000000000    0.4402190000000000    0.3155070000000000 O
   0.1707210000000000    0.4486270000000000    0.9935110000000000 O
   0.1517330000000000    0.4798890000000000    0.1743600000000000 O
   0.1740900000000000    0.4941380000000000    0.8157180000000001 O
   0.5597810000000000    0.6801300000000000    0.8155070000000000 O
   0.4860230000000000    0.6500890000000000    0.1633260000000000 O
   0.7813480000000000    0.8694780000000000    0.5953810000000000 O
   0.7649580000000000    0.8364130000000000    0.3890020000000000 O
   0.5175190000000000    0.6587480000000000    0.0738340000000000 O
   0.5513730000000000    0.8292790000000000    0.4935110000000000 O
   0.7752960000000000    0.9756870000000000    0.8522010000000000 O
   0.7785029999999999    0.9745279999999999    0.1361560000000000 O
   0.5201110000000000    0.8482670000000000    0.6743600000000000 O
   0.5058620000000000    0.8259100000000000    0.3157180000000000 O
   0.1458290000000000    0.6523310000000000    0.6680690000000000 O
   0.1584970000000000    0.6461330000000000    0.3309320000000000 O
   0.7262210000000000    0.0880820000000000    0.5830840000000000 O
   0.7317540000000000    0.0744010000000000    0.3882460000000000 O
   0.0696400000000000    0.6836750000000000    0.4935720000000000 O
   0.3538670000000000    0.8415030000000000    0.8309320000000000 O
   0.3476690000000000    0.8541710000000000    0.1680690000000000 O
   0.3163250000000000    0.9303600000000000    0.9935720000000000 O
   0.9255989999999999    0.2682460000000000    0.8882460000000000 O
   0.9119180000000000    0.2737790000000000    0.0830840000000000 O
   0.0744010000000000    0.7317540000000000    0.8882460000000000 O
   0.0880820000000000    0.7262210000000000    0.0830840000000000 O
   0.6836750000000000    0.0696400000000000    0.9935720000000000 O
   0.6461330000000000    0.1584970000000000    0.8309320000000000 O
   0.6523310000000000    0.1458290000000000    0.1680690000000000 O
   0.9303600000000000    0.3163250000000000    0.4935720000000000 O
   0.2737790000000000    0.9119180000000000    0.5830840000000000 O
   0.2682460000000000    0.9255989999999999    0.3882460000000000 O
   0.8541710000000000    0.3476690000000000    0.6680690000000000 O
   0.8415030000000000    0.3538670000000000    0.3309320000000000 O
   0.4798890000000000    0.1517330000000000    0.6743600000000000 O
   0.4941380000000000    0.1740900000000000    0.3157180000000000 O
   0.2247040000000000    0.0243130000000000    0.8522010000000000 O
   0.2214970000000000    0.0254720000000000    0.1361560000000000 O
   0.4486270000000000    0.1707210000000000    0.4935110000000000 O
   0.4824810000000000    0.3412520000000000    0.0738340000000000 O
   0.2186520000000000    0.1305220000000000    0.5953810000000000 O
   0.2350420000000000    0.1635870000000000    0.3890020000000000 O
   0.4402190000000000    0.3198700000000000    0.8155070000000000 O
   0.5139770000000000    0.3499110000000000    0.1633260000000000 O
   0.8482670000000000    0.5201110000000000    0.1743600000000000 O
   0.8259100000000000    0.5058620000000000    0.8157180000000001 O
   0.8292790000000000    0.5513730000000000    0.9935110000000000 O
   0.6500890000000000    0.4860230000000000    0.6633260000000000 O
   0.6801300000000000    0.5597810000000000    0.3155070000000000 O
   0.6587480000000000    0.5175190000000000    0.5738340000000000 O
   0.9745279999999999    0.7785029999999999    0.6361560000000001 O
   0.9756870000000000    0.7752960000000000    0.3522010000000000 O
   0.8364130000000000    0.7649580000000000    0.8890020000000000 O
   0.8694780000000000    0.7813480000000000    0.0953810000000000 O
