pymatgen with grid density = 725 / number of atoms
0
Gamma
6 2 3
