Li6 Eu3 Si3 O12
1.0
   2.5253909999999999   -4.3741050000000001    0.0000000000000000
   2.5253909999999999    4.3741050000000001    0.0000000000000000
   0.0000000000000000    0.0000000000000000   12.4883590000000009
Li Eu Si O
6 3 3 12
direct
   0.4069360000000000    0.0730420000000000    0.0792420000000000 Li
   0.9269579999999999    0.3338930000000000    0.4125760000000000 Li
   0.6661070000000000    0.5930640000000000    0.7459090000000000 Li
   0.3338930000000000    0.9269579999999999    0.5874239999999999 Li
   0.5930640000000000    0.6661070000000000    0.2540910000000000 Li
   0.0730420000000000    0.4069360000000000    0.9207580000000000 Li
   0.0000000000000000    0.4211620000000000    0.1666670000000000 Eu
   0.4211620000000000    0.0000000000000000    0.8333330000000000 Eu
   0.5788380000000000    0.5788380000000000    0.5000000000000000 Eu
   0.7228140000000000    0.7228140000000000    0.0000000000000000 Si
   0.0000000000000000    0.2771860000000000    0.6666670000000000 Si
   0.2771860000000000    0.0000000000000000    0.3333330000000000 Si
   0.2394390000000000    0.3081420000000000    0.3292700000000000 O
   0.0687030000000000    0.7605610000000000    0.9959370000000000 O
   0.5494650000000000    0.5135530000000000    0.1068150000000000 O
   0.6918580000000000    0.9312970000000000    0.6626040000000000 O
   0.3081420000000000    0.2394390000000000    0.6707300000000000 O
   0.9312970000000000    0.6918580000000000    0.3373960000000000 O
   0.0359120000000000    0.4864470000000000    0.5598520000000000 O
   0.4864470000000000    0.0359120000000000    0.4401480000000000 O
   0.9640879999999999    0.4505350000000000    0.7734810000000000 O
   0.5135530000000000    0.5494650000000000    0.8931850000000000 O
   0.4505350000000000    0.9640879999999999    0.2265190000000000 O
   0.7605610000000000    0.0687030000000000    0.0040630000000000 O
