Li12 In8 P12 O48
1.0
   9.0005480000000002    0.0000000000000000    0.0000000000000000
   0.0000000000000000    8.7017170000000004    0.0000000000000000
   0.0000000000000000    8.7083750000000002   12.4534280000000006
Li In P O
12 8 12 48
direct
   0.2178690000000000    0.3593440000000000    0.8201540000000000 Li
   0.7178690000000000    0.6406560000000000    0.6798460000000000 Li
   0.7821310000000000    0.6406560000000000    0.1798460000000000 Li
   0.2821310000000000    0.3593440000000000    0.3201540000000000 Li
   0.9877010000000001    0.5867310000000000    0.8484870000000000 Li
   0.4877010000000000    0.4132690000000000    0.6515130000000000 Li
   0.0122990000000000    0.4132690000000000    0.1515130000000000 Li
   0.5122989999999999    0.5867310000000000    0.3484870000000000 Li
   0.9139890000000001    0.7701350000000000    0.3144370000000000 Li
   0.4139890000000000    0.2298650000000000    0.1855630000000000 Li
   0.0860110000000000    0.2298650000000000    0.6855630000000000 Li
   0.5860109999999999    0.7701350000000000    0.8144370000000000 Li
   0.0381250000000000    0.6562930000000000    0.6028800000000000 In
   0.5381250000000000    0.3437070000000000    0.8971200000000000 In
   0.9618750000000000    0.3437070000000000    0.3971200000000000 In
   0.4618750000000000    0.6562930000000000    0.1028800000000000 In
   0.9689070000000000    0.1360500000000000    0.1016530000000000 In
   0.4689070000000000    0.8639500000000000    0.3983470000000000 In
   0.0310930000000000    0.8639500000000000    0.8983470000000000 In
   0.5310930000000000    0.1360500000000000    0.6016530000000000 In
   0.2478320000000000    0.4621790000000000    0.9918460000000000 P
   0.7478320000000001    0.5378210000000000    0.5081540000000000 P
   0.7521679999999999    0.5378210000000000    0.0081540000000000 P
   0.2521680000000000    0.4621790000000000    0.4918460000000000 P
   0.1203060000000000    0.0469960000000000    0.3427290000000000 P
   0.6203060000000000    0.9530040000000000    0.1572710000000000 P
   0.8796940000000000    0.9530040000000000    0.6572710000000000 P
   0.3796940000000000    0.0469960000000000    0.8427290000000000 P
   0.8928970000000001    0.2703710000000000    0.8462040000000000 P
   0.3928970000000000    0.7296290000000000    0.6537960000000000 P
   0.1071030000000000    0.7296290000000000    0.1537960000000000 P
   0.6071029999999999    0.2703710000000000    0.3462040000000000 P
   0.7906480000000000    0.9369360000000000    0.1823490000000000 O
   0.2906480000000000    0.0630640000000000    0.3176510000000000 O
   0.2093520000000000    0.0630640000000000    0.8176510000000000 O
   0.7093520000000000    0.9369360000000000    0.6823490000000000 O
   0.9220310000000000    0.7477910000000000    0.6936440000000000 O
   0.4220310000000000    0.2522090000000000    0.8063560000000000 O
   0.0779690000000000    0.2522090000000000    0.3063560000000000 O
   0.5779690000000000    0.7477910000000000    0.1936440000000000 O
   0.8302720000000000    0.3541960000000000    0.0968860000000000 O
   0.3302720000000000    0.6458040000000000    0.4031140000000000 O
   0.1697280000000000    0.6458040000000000    0.9031140000000000 O
   0.6697280000000000    0.3541960000000000    0.5968860000000000 O
   0.1284310000000000    0.4883680000000000    0.5526759999999999 O
   0.6284310000000000    0.5116320000000000    0.9473240000000001 O
   0.8715690000000000    0.5116320000000000    0.4473240000000000 O
   0.3715690000000000    0.4883680000000000    0.0526760000000000 O
   0.0066120000000000    0.3670210000000000    0.7505380000000000 O
   0.5066120000000000    0.6329790000000000    0.7494620000000000 O
   0.9933880000000000    0.6329790000000000    0.2494620000000000 O
   0.4933880000000000    0.3670210000000000    0.2505380000000000 O
   0.2390880000000000    0.6313000000000000    0.6931170000000000 O
   0.7390880000000000    0.3687000000000000    0.8068830000000000 O
   0.7609120000000000    0.3687000000000000    0.3068830000000000 O
   0.2609120000000000    0.6313000000000000    0.1931170000000000 O
   0.9571890000000000    0.3100950000000000    0.9273439999999999 O
   0.4571890000000000    0.6899050000000000    0.5726560000000001 O
   0.0428110000000000    0.6899050000000000    0.0726560000000000 O
   0.5428110000000000    0.3100950000000000    0.4273440000000000 O
   0.0272840000000000    0.9939860000000000    0.2785550000000000 O
   0.5272840000000000    0.0060140000000000    0.2214450000000000 O
   0.9727160000000000    0.0060140000000000    0.7214450000000000 O
   0.4727160000000000    0.9939860000000000    0.7785550000000000 O
   0.8119240000000000    0.6338900000000000    0.5605120000000000 O
   0.3119240000000000    0.3661100000000000    0.9394880000000000 O
   0.1880760000000000    0.3661100000000000    0.4394880000000000 O
   0.6880760000000000    0.6338900000000000    0.0605120000000000 O
   0.1149830000000000    0.9402470000000001    0.1030750000000000 O
   0.6149829999999999    0.0597530000000000    0.3969250000000000 O
   0.8850170000000001    0.0597530000000000    0.8969250000000000 O
   0.3850170000000000    0.9402470000000001    0.6030750000000000 O
   0.1372080000000000    0.3254710000000000    0.0824620000000000 O
   0.6372080000000000    0.6745290000000000    0.4175380000000000 O
   0.8627920000000000    0.6745290000000000    0.9175380000000000 O
   0.3627920000000000    0.3254710000000000    0.5824620000000000 O
   0.0985130000000000    0.9101399999999999    0.4635220000000000 O
   0.5985130000000000    0.0898600000000000    0.0364780000000000 O
   0.9014870000000000    0.0898600000000000    0.5364780000000000 O
   0.4014870000000000    0.9101399999999999    0.9635220000000000 O
