ALGO = Fast
EDIFF = 0.0018000000000000002
ENCUT = 520
IBRION = 2
ISIF = 3
ISMEAR = -5
ISPIN = 2
LASPH = True
LMAXMIX = 4
LORBIT = 11
LREAL = Auto
LWAVE = False
MAGMOM = 2*-0.0 1*0.437 1*0.44 1*0.008 2*0.016 1*0.007 1*0.008 2*0.016 1*0.008 1*0.001 1*0.07 1*0.016 1*0.052 1*0.073 1*0.005 1*0.068 1*0.052 1*0.005 1*0.001 1*0.016 1*0.07 1*0.069 1*0.016 1*0.001 1*0.005 1*0.05 1*0.072 1*0.005 1*0.07 1*0.052 1*0.016 1*0.072 1*0.001
NELM = 100
NSW = 99
PREC = Accurate
SIGMA = 0.05
