K8 Li8 P16 O48
1.0
   7.0148320000000002    6.9755729999999998    0.0000000000000000
  -7.0148320000000002    6.9755729999999998    0.0000000000000000
   0.0000000000000000    0.0572820000000000   12.0151389999999996
K Li P O
8 8 16 48
direct
   0.2212870000000000    0.4688900000000000    0.0442830000000000 K
   0.5311100000000000    0.7787130000000000    0.4557170000000000 K
   0.0013170000000000    0.2535130000000000    0.5287280000000000 K
   0.7787130000000000    0.5311100000000000    0.9557170000000000 K
   0.4688900000000000    0.2212870000000000    0.5442830000000000 K
   0.9986830000000000    0.7464870000000000    0.4712720000000000 K
   0.7464870000000000    0.9986830000000000    0.9712720000000000 K
   0.2535130000000000    0.0013170000000000    0.0287280000000000 K
   0.3881810000000000    0.2278980000000000    0.8724130000000000 Li
   0.7440180000000000    0.1173290000000000    0.4321550000000000 Li
   0.8826710000000000    0.2559820000000000    0.0678450000000000 Li
   0.6118190000000000    0.7721020000000000    0.1275870000000000 Li
   0.7721020000000000    0.6118190000000000    0.6275870000000000 Li
   0.2278980000000000    0.3881810000000000    0.3724130000000000 Li
   0.1173290000000000    0.7440180000000000    0.9321550000000000 Li
   0.2559820000000000    0.8826710000000000    0.5678450000000000 Li
   0.5198110000000000    0.4801890000000000    0.7500000000000000 P
   0.9656740000000000    0.0343260000000000    0.2500000000000000 P
   0.4485050000000000    0.7105230000000000    0.9010250000000000 P
   0.5306410000000000    0.0519770000000000    0.2482200000000000 P
   0.2894770000000000    0.5514950000000000    0.5989750000000000 P
   0.7105230000000000    0.4485050000000000    0.4010250000000000 P
   0.4693590000000000    0.9480229999999999    0.7517800000000000 P
   0.0519770000000000    0.5306410000000000    0.7482200000000000 P
   0.7529760000000000    0.9461270000000001    0.6632680000000000 P
   0.0538730000000000    0.2470240000000000    0.8367320000000000 P
   0.4801890000000000    0.5198110000000000    0.2500000000000000 P
   0.9480229999999999    0.4693590000000000    0.2517800000000000 P
   0.9461270000000001    0.7529760000000000    0.1632680000000000 P
   0.0343260000000000    0.9656740000000000    0.7500000000000000 P
   0.2470240000000000    0.0538730000000000    0.3367320000000000 P
   0.5514950000000000    0.2894770000000000    0.0989750000000000 P
   0.9473000000000000    0.8710310000000000    0.2576820000000000 O
   0.4449790000000000    0.5480290000000000    0.6429110000000000 O
   0.0527000000000000    0.1289690000000000    0.7423180000000000 O
   0.5499770000000000    0.2103830000000000    0.2177680000000000 O
   0.4198660000000000    0.9637960000000000    0.6341370000000000 O
   0.6655200000000000    0.5206180000000000    0.7411940000000000 O
   0.4500230000000000    0.7896170000000000    0.7822320000000000 O
   0.0341580000000000    0.4160630000000000    0.3439300000000000 O
   0.9133180000000000    0.0845020000000000    0.1409420000000000 O
   0.5206180000000000    0.6655200000000000    0.2411940000000000 O
   0.9658420000000000    0.5839370000000000    0.6560700000000000 O
   0.8710310000000000    0.9473000000000000    0.7576820000000000 O
   0.5550210000000000    0.4519710000000000    0.3570890000000000 O
   0.7645670000000000    0.0673780000000000    0.5889570000000000 O
   0.2581550000000000    0.4246420000000000    0.5353480000000000 O
   0.0362040000000000    0.5801340000000000    0.8658630000000000 O
   0.9637960000000000    0.4198660000000000    0.1341370000000000 O
   0.4246420000000000    0.2581550000000000    0.0353480000000000 O
   0.7419130000000000    0.8088460000000000    0.6112720000000000 O
   0.1911540000000000    0.2580870000000000    0.8887280000000000 O
   0.0845020000000000    0.9133180000000000    0.6409420000000000 O
   0.5801340000000000    0.0362040000000000    0.3658630000000000 O
   0.9326220000000000    0.2354330000000000    0.9110430000000000 O
   0.6323440000000000    0.9683360000000000    0.7543750000000000 O
   0.5480290000000000    0.4449790000000000    0.1429110000000000 O
   0.7265900000000000    0.3144560000000000    0.4579010000000000 O
   0.3676560000000000    0.0316640000000000    0.2456250000000000 O
   0.7418450000000000    0.5753580000000000    0.4646520000000000 O
   0.9154980000000000    0.0866820000000000    0.3590580000000000 O
   0.5839370000000000    0.9658420000000000    0.1560700000000000 O
   0.3144560000000000    0.7265900000000000    0.9579010000000000 O
   0.2580870000000000    0.1911540000000000    0.3887280000000000 O
   0.0866820000000000    0.9154980000000000    0.8590580000000000 O
   0.4160630000000000    0.0341580000000000    0.8439300000000000 O
   0.6855440000000000    0.2734100000000000    0.0420990000000000 O
   0.4793820000000000    0.3344800000000000    0.7588060000000000 O
   0.0316640000000000    0.3676560000000000    0.7456250000000000 O
   0.0673780000000000    0.7645670000000000    0.0889570000000000 O
   0.7896170000000000    0.4500230000000000    0.2822320000000000 O
   0.8088460000000000    0.7419130000000000    0.1112720000000000 O
   0.4519710000000000    0.5550210000000000    0.8570890000000000 O
   0.2354330000000000    0.9326220000000000    0.4110430000000000 O
   0.5753580000000000    0.7418450000000000    0.9646520000000000 O
   0.9683360000000000    0.6323440000000000    0.2543750000000000 O
   0.1289690000000000    0.0527000000000000    0.2423180000000000 O
   0.2734100000000000    0.6855440000000000    0.5420990000000000 O
   0.3344800000000000    0.4793820000000000    0.2588060000000000 O
   0.2103830000000000    0.5499770000000000    0.7177680000000000 O
