ALGO = Fast
EDIFF = 0.0010500000000000002
ENCUT = 520
IBRION = 2
ISIF = 3
ISMEAR = -5
ISPIN = 2
LASPH = True
LMAXMIX = 4
LORBIT = 11
LREAL = Auto
LWAVE = False
MAGMOM = 1*0.002 1*0.0 1*0.002 1*0.197 2*0.001 1*0.0 1*0.001 1*0.185 2*0.001 1*0.0 1*0.124 1*0.189 1*0.002 1*0.001 1*0.0 1*0.002 1*0.04 1*0.001 1*0.0
NELM = 100
NSW = 99
PREC = Accurate
SIGMA = 0.05
