Li6 Bi6 P16 O58
1.0
   5.0681209999999997    8.7303680000000004    0.0000000000000000
  -5.0681209999999997    8.7303680000000004    0.0000000000000000
   0.0000000000000000    0.1780240000000000   14.3664590000000008
Li Bi P O
6 6 16 58
direct
   0.0000000000000000    0.0000000000000000    0.0000000000000000 Li
   0.0000000000000000    0.0000000000000000    0.5000000000000000 Li
   0.9126730000000000    0.3212130000000000    0.4461600000000000 Li
   0.3212130000000000    0.9126730000000000    0.9461600000000000 Li
   0.6787870000000000    0.0873270000000000    0.0538400000000000 Li
   0.0873270000000000    0.6787870000000000    0.5538400000000000 Li
   0.9992870000000000    0.5649770000000000    0.7597370000000000 Bi
   0.0007130000000000    0.4350230000000000    0.2402630000000000 Bi
   0.5649770000000000    0.9992870000000000    0.2597370000000000 Bi
   0.4350230000000000    0.0007130000000000    0.7402630000000000 Bi
   0.5611460000000000    0.4388540000000000    0.7500000000000000 Bi
   0.4388540000000000    0.5611460000000000    0.2500000000000000 Bi
   0.9211050000000000    0.7879520000000000    0.1563230000000000 P
   0.7879520000000000    0.9211050000000000    0.6563230000000000 P
   0.9163070000000000    0.3096840000000000    0.6553980000000000 P
   0.6704230000000000    0.6611030000000000    0.3768450000000000 P
   0.6611030000000000    0.6704230000000000    0.8768450000000000 P
   0.7800140000000000    0.2970490000000000    0.1529850000000000 P
   0.7029510000000000    0.2199860000000000    0.3470150000000000 P
   0.3096840000000000    0.9163070000000000    0.1553980000000000 P
   0.6903160000000000    0.0836930000000000    0.8446020000000000 P
   0.2970490000000000    0.7800140000000000    0.6529850000000000 P
   0.2199860000000000    0.7029510000000000    0.8470150000000000 P
   0.3295770000000000    0.3388970000000000    0.6231550000000000 P
   0.3388970000000000    0.3295770000000000    0.1231550000000000 P
   0.0836930000000000    0.6903160000000000    0.3446020000000000 P
   0.2120480000000000    0.0788950000000000    0.3436770000000000 P
   0.0788950000000000    0.2120480000000000    0.8436770000000000 P
   0.9891610000000000    0.7917770000000000    0.2568340000000000 O
   0.0083390000000000    0.7735069999999999    0.4326880000000000 O
   0.9253380000000000    0.7533400000000000    0.6576760000000000 O
   0.7917770000000000    0.9891610000000000    0.7568340000000000 O
   0.7735069999999999    0.0083390000000000    0.9326880000000000 O
   0.7533400000000000    0.9253380000000000    0.1576760000000000 O
   0.9146609999999999    0.6372380000000000    0.1501880000000000 O
   0.7921180000000000    0.6993680000000000    0.8401380000000001 O
   0.9027820000000000    0.4690670000000000    0.6628960000000000 O
   0.9951740000000000    0.1820660000000000    0.9194140000000000 O
   0.0108390000000000    0.2082230000000000    0.7431660000000000 O
   0.9235780000000000    0.3161270000000000    0.1488630000000000 O
   0.6993680000000000    0.7921180000000000    0.3401380000000000 O
   0.6372380000000000    0.9146609999999999    0.6501880000000000 O
   0.8074030000000000    0.5040170000000000    0.3399500000000000 O
   0.6721810000000000    0.6499350000000000    0.4807250000000000 O
   0.6499350000000000    0.6721810000000000    0.9807250000000000 O
   0.6896770000000000    0.5180360000000001    0.8310730000000000 O
   0.4690670000000000    0.9027820000000000    0.1628960000000000 O
   0.5040170000000000    0.8074030000000000    0.8399500000000000 O
   0.7551680000000000    0.3248830000000000    0.6587590000000000 O
   0.7875790000000000    0.2124210000000000    0.2500000000000000 O
   0.8059120000000000    0.2112770000000000    0.4236110000000000 O
   0.7887230000000000    0.1940880000000000    0.0763890000000000 O
   0.6352850000000000    0.4580910000000000    0.1555200000000000 O
   0.5180360000000001    0.6896770000000000    0.3310730000000000 O
   0.6751170000000000    0.2448320000000000    0.8412410000000000 O
   0.4580910000000000    0.6352850000000000    0.6555200000000000 O
   0.3161270000000000    0.9235780000000000    0.6488630000000000 O
   0.8179340000000000    0.0048260000000000    0.5805860000000000 O
   0.1820660000000000    0.9951740000000000    0.4194140000000000 O
   0.2082230000000000    0.0108390000000000    0.2431660000000000 O
   0.6838730000000000    0.0764220000000000    0.3511370000000000 O
   0.5419090000000000    0.3647150000000000    0.3444800000000000 O
   0.3248830000000000    0.7551680000000000    0.1587590000000000 O
   0.4819640000000000    0.3103230000000000    0.6689270000000000 O
   0.3647150000000000    0.5419090000000000    0.8444800000000000 O
   0.2112770000000000    0.8059120000000000    0.9236110000000000 O
   0.1940880000000000    0.7887230000000000    0.5763890000000000 O
   0.2124210000000000    0.7875790000000000    0.7500000000000000 O
   0.2448320000000000    0.6751170000000000    0.3412410000000000 O
   0.4959830000000000    0.1925970000000000    0.1600500000000000 O
   0.5309330000000000    0.0972180000000000    0.8371040000000000 O
   0.3103230000000000    0.4819640000000000    0.1689270000000000 O
   0.3278190000000000    0.3500650000000000    0.5192750000000000 O
   0.3500650000000000    0.3278190000000000    0.0192750000000000 O
   0.1925970000000000    0.4959830000000000    0.6600500000000000 O
   0.3627620000000000    0.0853390000000000    0.3498120000000000 O
   0.3006320000000000    0.2078820000000000    0.6598619999999999 O
   0.0764220000000000    0.6838730000000000    0.8511370000000000 O
   0.0048260000000000    0.8179340000000000    0.0805860000000000 O
   0.0972180000000000    0.5309330000000000    0.3371040000000000 O
   0.2078820000000000    0.3006320000000000    0.1598620000000000 O
   0.0853390000000000    0.3627620000000000    0.8498120000000000 O
   0.2466600000000000    0.0746620000000000    0.8423240000000000 O
   0.2264930000000000    0.9916610000000000    0.0673120000000000 O
   0.0746620000000000    0.2466600000000000    0.3423240000000000 O
   0.9916610000000000    0.2264930000000000    0.5673120000000000 O
