Sr2 Li2 B18 O30
1.0
   6.7005379999999999   -5.4097869999999997    0.0000000000000000
   6.7005379999999999    5.4097869999999997    0.0000000000000000
   2.3328609999999999    0.0000000000000000    8.2897990000000004
Sr Li B O
2 2 18 30
direct
   0.4921920000000000    0.4921920000000000    0.4921920000000000 Sr
   0.9921920000000000    0.9921920000000000    0.9921920000000000 Sr
   0.2331330000000000    0.2331330000000000    0.2331330000000000 Li
   0.7331330000000000    0.7331330000000000    0.7331330000000000 Li
   0.6251300000000000    0.7688660000000000    0.1038930000000000 B
   0.7112860000000000    0.2753090000000000    0.8336600000000000 B
   0.3336600000000000    0.7753090000000000    0.2112860000000000 B
   0.2112860000000000    0.3336600000000000    0.7753090000000000 B
   0.2688660000000000    0.1251300000000000    0.6038930000000000 B
   0.6038930000000000    0.2688660000000000    0.1251300000000000 B
   0.1251300000000000    0.6038930000000000    0.2688660000000000 B
   0.2753090000000000    0.8336600000000000    0.7112860000000000 B
   0.7688660000000000    0.1038930000000000    0.6251300000000000 B
   0.1038930000000000    0.6251300000000000    0.7688660000000000 B
   0.2805790000000000    0.9397620000000000    0.4227680000000000 B
   0.4227680000000000    0.2805790000000000    0.9397620000000000 B
   0.9397620000000000    0.4227680000000000    0.2805790000000000 B
   0.7805790000000000    0.9227680000000000    0.4397620000000000 B
   0.4397620000000000    0.7805790000000000    0.9227680000000000 B
   0.9227680000000000    0.4397620000000000    0.7805790000000000 B
   0.8336600000000000    0.7112860000000000    0.2753090000000000 B
   0.7753090000000000    0.2112860000000000    0.3336600000000000 B
   0.7691210000000001    0.7953300000000000    0.1253140000000000 O
   0.1253140000000000    0.7691210000000001    0.7953300000000000 O
   0.2310810000000000    0.5050550000000000    0.7351520000000000 O
   0.5050550000000000    0.7351520000000000    0.2310810000000000 O
   0.7953300000000000    0.1253140000000000    0.7691210000000001 O
   0.0050550000000000    0.7310810000000000    0.2351520000000000 O
   0.7310810000000000    0.2351520000000000    0.0050550000000000 O
   0.2351520000000000    0.0050550000000000    0.7310810000000000 O
   0.2747610000000000    0.2597370000000000    0.9254869999999999 O
   0.2597370000000000    0.9254869999999999    0.2747610000000000 O
   0.9254869999999999    0.2747610000000000    0.2597370000000000 O
   0.7597370000000000    0.7747610000000000    0.4254870000000000 O
   0.7747610000000000    0.4254870000000000    0.7597370000000000 O
   0.4254870000000000    0.7597370000000000    0.7747610000000000 O
   0.2691210000000000    0.6253140000000000    0.2953300000000000 O
   0.2953300000000000    0.2691210000000000    0.6253140000000000 O
   0.3074770000000000    0.8112630000000000    0.5424840000000000 O
   0.5424840000000000    0.3074770000000000    0.8112630000000000 O
   0.8112630000000000    0.5424840000000000    0.3074770000000000 O
   0.8074770000000000    0.0424840000000000    0.3112630000000000 O
   0.3112630000000000    0.8074770000000000    0.0424840000000000 O
   0.0424840000000000    0.3112630000000000    0.8074770000000000 O
   0.2749740000000000    0.0983970000000000    0.4468890000000000 O
   0.4468890000000000    0.2749740000000000    0.0983970000000000 O
   0.0983970000000000    0.4468890000000000    0.2749740000000000 O
   0.7749740000000001    0.9468890000000000    0.5983970000000000 O
   0.5983970000000000    0.7749740000000001    0.9468890000000000 O
   0.9468890000000000    0.5983970000000000    0.7749740000000001 O
   0.7351520000000000    0.2310810000000000    0.5050550000000000 O
   0.6253140000000000    0.2953300000000000    0.2691210000000000 O
