pymatgen with grid density = 1752 / number of atoms
0
Gamma
5 5 3
