Na6 Li6 S6 O24
1.0
   3.8838450000000000   -6.7270170000000000    0.0000000000000000
   3.8838450000000000    6.7270170000000000    0.0000000000000000
   0.0000000000000000    0.0000000000000000    9.9587839999999996
Na Li S O
6 6 6 24
direct
   0.9739930000000000    0.4482420000000000    0.4902410000000000 Na
   0.5517580000000000    0.5257520000000000    0.4902410000000000 Na
   0.4742480000000000    0.0260070000000000    0.4902410000000000 Na
   0.4482420000000000    0.9739930000000000    0.9902410000000000 Na
   0.5257520000000000    0.5517580000000000    0.9902410000000000 Na
   0.0260070000000000    0.4742480000000000    0.9902410000000000 Na
   0.0337650000000000    0.7875360000000000    0.7599050000000001 Li
   0.2124640000000000    0.2462290000000000    0.7599050000000001 Li
   0.7537710000000000    0.9662350000000000    0.7599050000000001 Li
   0.7875360000000000    0.0337650000000000    0.2599050000000000 Li
   0.2462290000000000    0.2124640000000000    0.2599050000000000 Li
   0.9662350000000000    0.7537710000000000    0.2599050000000000 Li
   0.0000000000000000    0.0000000000000000    0.9992970000000000 S
   0.0000000000000000    0.0000000000000000    0.4992970000000000 S
   0.6666670000000000    0.3333330000000000    0.1975810000000000 S
   0.3333330000000000    0.6666670000000000    0.6975810000000000 S
   0.3333330000000000    0.6666670000000000    0.2641940000000000 S
   0.6666670000000000    0.3333330000000000    0.7641940000000000 S
   0.4813360000000000    0.3227800000000000    0.8151310000000000 O
   0.6772200000000000    0.1585560000000000    0.8151310000000000 O
   0.8414440000000000    0.5186640000000000    0.8151310000000000 O
   0.3227800000000000    0.4813360000000000    0.3151310000000000 O
   0.1585560000000000    0.6772200000000000    0.3151310000000000 O
   0.5186640000000000    0.8414440000000000    0.3151310000000000 O
   0.0000000000000000    0.0000000000000000    0.1520060000000000 O
   0.0000000000000000    0.0000000000000000    0.6520060000000000 O
   0.6666670000000000    0.3333330000000000    0.3467100000000000 O
   0.3333330000000000    0.6666670000000000    0.8467100000000000 O
   0.3333330000000000    0.6666670000000000    0.1146990000000000 O
   0.6666670000000000    0.3333330000000000    0.6146990000000000 O
   0.7913190000000000    0.8882520000000000    0.9496520000000001 O
   0.1117480000000000    0.9030670000000000    0.9496520000000001 O
   0.0969330000000000    0.2086810000000000    0.9496520000000001 O
   0.8882520000000000    0.7913190000000000    0.4496520000000000 O
   0.9030670000000000    0.1117480000000000    0.4496520000000000 O
   0.2086810000000000    0.0969330000000000    0.4496520000000000 O
   0.7684130000000000    0.5419090000000000    0.1455750000000000 O
   0.4580910000000000    0.2265040000000000    0.1455750000000000 O
   0.7734960000000000    0.2315870000000000    0.1455750000000000 O
   0.5419090000000000    0.7684130000000000    0.6455750000000000 O
   0.2265040000000000    0.4580910000000000    0.6455750000000000 O
   0.2315870000000000    0.7734960000000000    0.6455750000000000 O
