ALGO = Fast
EDIFF = 0.0006500000000000001
ENCUT = 520
IBRION = 2
ISIF = 3
ISMEAR = -5
ISPIN = 2
LASPH = True
LMAXMIX = 4
LORBIT = 11
LREAL = Auto
LWAVE = False
MAGMOM = 1*0.001 1*0.002 1*0.003 2*0.0 1*0.313 1*0.001 1*0.002 1*0.021 1*0.168 1*0.013 1*0.175 1*0.002
NELM = 100
NSW = 99
PREC = Accurate
SIGMA = 0.05
