pymatgen with grid density = 877 / number of atoms
0
Gamma
4 4 3
