K2 Li1 H2 Se2 O6
1.0
   4.9698110000000000    0.5892200000000000   -1.8813580000000001
  -0.1076020000000000    5.6404379999999996   -2.2542640000000000
  -0.0473740000000000    0.0483670000000000    8.3673059999999992
K Li H Se O
2 1 2 2 6
direct
   0.2454160000000000    0.5963570000000000    0.1188300000000000 K
   0.6795060000000001    0.3824000000000000    0.7860270000000000 K
   0.7823580000000000    0.7915900000000000    0.3236860000000000 Li
   0.2047350000000000    0.0734780000000000    0.0498540000000000 H
   0.6616600000000000    0.9149280000000000    0.0559250000000000 H
   0.0556510000000000    0.2451810000000000    0.3756420000000000 Se
   0.1546240000000000    0.8402350000000000    0.7353740000000000 Se
   0.1440380000000000    0.1105480000000000    0.9318270000000000 O
   0.6996620000000000    0.7642490000000000    0.0797710000000000 O
   0.8796090000000000    0.4442140000000000    0.2646780000000000 O
   0.0587740000000000    0.6279470000000000    0.7795450000000000 O
   0.2844470000000000    0.0775810000000000    0.2654630000000000 O
   0.8870190000000000    0.9385820000000000    0.5852290000000000 O
