Li8 Sb4 S4 O16 F12
1.0
   5.1340830000000004    0.0000000000000000    0.0000000000000000
   0.0000000000000000    8.7396519999999995    0.0000000000000000
   0.0000000000000000    0.0000000000000000   13.0181470000000008
Li Sb S O F
8 4 4 16 12
direct
   0.9585630000000001    0.4926350000000000    0.7210960000000000 Li
   0.0041000000000000    0.2894330000000000    0.4460620000000000 Li
   0.4959000000000000    0.7105669999999999    0.9460620000000000 Li
   0.5414369999999999    0.5073650000000000    0.2210960000000000 Li
   0.4585630000000000    0.0073650000000000    0.2789040000000000 Li
   0.5041000000000000    0.2105670000000000    0.5539380000000000 Li
   0.9959000000000000    0.7894330000000001    0.0539380000000000 Li
   0.0414370000000000    0.9926350000000000    0.7789040000000000 Li
   0.0568080000000000    0.9422230000000000    0.5260990000000000 Sb
   0.4431920000000000    0.0577770000000000    0.0260990000000000 Sb
   0.5568080000000000    0.5577770000000000    0.4739010000000000 Sb
   0.9431920000000000    0.4422230000000000    0.9739010000000000 Sb
   0.9728480000000000    0.2036980000000000    0.1778030000000000 S
   0.5271520000000000    0.7963020000000000    0.6778030000000000 S
   0.4728480000000000    0.2963020000000000    0.8221970000000000 S
   0.0271520000000000    0.7036980000000000    0.3221970000000000 S
   0.0235040000000000    0.1187520000000000    0.0760450000000000 O
   0.1557380000000000    0.8528970000000000    0.3536310000000000 O
   0.2071340000000000    0.6133560000000000    0.2594460000000000 O
   0.2250210000000000    0.2303500000000000    0.2290910000000000 O
   0.2749790000000000    0.7696499999999999    0.7290910000000000 O
   0.2928660000000000    0.3866440000000000    0.7594460000000000 O
   0.3442620000000000    0.1471030000000000    0.8536310000000000 O
   0.4764960000000000    0.8812480000000000    0.5760450000000000 O
   0.5235040000000000    0.3812480000000000    0.9239550000000000 O
   0.6557380000000000    0.6471030000000000    0.6463690000000000 O
   0.7071340000000000    0.8866440000000000    0.7405540000000000 O
   0.7250210000000000    0.2696500000000000    0.7709090000000000 O
   0.7749790000000000    0.7303500000000001    0.2709090000000000 O
   0.7928660000000000    0.1133560000000000    0.2405540000000000 O
   0.8442620000000000    0.3528970000000000    0.1463690000000000 O
   0.9764960000000000    0.6187520000000000    0.4239550000000000 O
   0.1101400000000000    0.0867510000000000    0.6463920000000000 F
   0.2080330000000000    0.6114180000000000    0.0195310000000000 F
   0.2753210000000000    0.1019210000000000    0.4551350000000000 F
   0.2246790000000000    0.8980790000000000    0.9551350000000000 F
   0.2919670000000000    0.3885820000000000    0.5195310000000000 F
   0.3898600000000000    0.9132490000000000    0.1463920000000000 F
   0.6101400000000000    0.4132490000000000    0.3536080000000000 F
   0.7080330000000000    0.8885820000000000    0.9804690000000000 F
   0.7753210000000000    0.3980790000000000    0.5448650000000000 F
   0.7246790000000000    0.6019210000000000    0.0448650000000000 F
   0.7919670000000000    0.1114180000000000    0.4804690000000000 F
   0.8898600000000000    0.5867510000000000    0.8536080000000000 F
