Li8 Al6 Si6 Cl2 O24
1.0
   8.5322169999999993    0.0000000000000000    0.0000000000000000
   0.0000000000000000    8.5322169999999993    0.0000000000000000
   0.0000000000000000    0.0000000000000000    8.5322169999999993
Li Al Si Cl O
8 6 6 2 24
direct
   0.1742730000000000    0.1742730000000000    0.1742730000000000 Li
   0.6742730000000000    0.6742730000000000    0.6742730000000000 Li
   0.8257270000000000    0.1742730000000000    0.8257270000000000 Li
   0.3257270000000000    0.6742730000000000    0.3257270000000000 Li
   0.3257270000000000    0.3257270000000000    0.6742730000000000 Li
   0.6742730000000000    0.3257270000000000    0.3257270000000000 Li
   0.8257270000000000    0.8257270000000000    0.1742730000000000 Li
   0.1742730000000000    0.8257270000000000    0.8257270000000000 Li
   0.0000000000000000    0.7500000000000000    0.5000000000000000 Al
   0.2500000000000000    0.5000000000000000    0.0000000000000000 Al
   0.5000000000000000    0.0000000000000000    0.7500000000000000 Al
   0.5000000000000000    0.0000000000000000    0.2500000000000000 Al
   0.0000000000000000    0.2500000000000000    0.5000000000000000 Al
   0.7500000000000000    0.5000000000000000    0.0000000000000000 Al
   0.7500000000000000    0.0000000000000000    0.5000000000000000 Si
   0.5000000000000000    0.2500000000000000    0.0000000000000000 Si
   0.0000000000000000    0.5000000000000000    0.7500000000000000 Si
   0.0000000000000000    0.5000000000000000    0.2500000000000000 Si
   0.5000000000000000    0.7500000000000000    0.0000000000000000 Si
   0.2500000000000000    0.0000000000000000    0.5000000000000000 Si
   0.5000000000000000    0.5000000000000000    0.5000000000000000 Cl
   0.0000000000000000    0.0000000000000000    0.0000000000000000 Cl
   0.6438330000000000    0.9088560000000000    0.6324130000000000 O
   0.6438330000000000    0.0911440000000000    0.3675870000000000 O
   0.9088560000000000    0.6324130000000000    0.6438330000000000 O
   0.0911440000000000    0.6324130000000000    0.3561670000000000 O
   0.6324130000000000    0.6438330000000000    0.9088560000000000 O
   0.3675870000000000    0.3561670000000000    0.9088560000000000 O
   0.8561670000000000    0.8675870000000000    0.4088560000000000 O
   0.8561670000000000    0.1324130000000000    0.5911440000000000 O
   0.1438330000000000    0.8675870000000000    0.5911440000000000 O
   0.1324130000000000    0.5911440000000000    0.8561670000000000 O
   0.5911440000000000    0.1438330000000000    0.8675870000000000 O
   0.5911440000000000    0.8561670000000000    0.1324130000000000 O
   0.8675870000000000    0.4088560000000000    0.8561670000000000 O
   0.4088560000000000    0.8561670000000000    0.8675870000000000 O
   0.1438330000000000    0.1324130000000000    0.4088560000000000 O
   0.3561670000000000    0.9088560000000000    0.3675870000000000 O
   0.3561670000000000    0.0911440000000000    0.6324130000000000 O
   0.0911440000000000    0.3675870000000000    0.6438330000000000 O
   0.9088560000000000    0.3675870000000000    0.3561670000000000 O
   0.6324130000000000    0.3561670000000000    0.0911440000000000 O
   0.3675870000000000    0.6438330000000000    0.0911440000000000 O
   0.4088560000000000    0.1438330000000000    0.1324130000000000 O
   0.1324130000000000    0.4088560000000000    0.1438330000000000 O
   0.8675870000000000    0.5911440000000000    0.1438330000000000 O
