Li2 Mg2 Al6 Se12 O48
1.0
   8.5303880000000003    0.0000000000000000    0.0000000000000000
   0.0407860000000000    9.0911089999999994    0.0000000000000000
   0.0147900000000000    1.0961900000000000   12.4177499999999998
Li Mg Al Se O
2 2 6 12 48
direct
   0.7756410000000000    0.5985090000000000    0.0300650000000000 Li
   0.3315090000000000    0.7262710000000000    0.9072210000000001 Li
   0.4972740000000000    0.7890130000000000    0.1458700000000000 Mg
   0.9986120000000001    0.7074030000000000    0.8456780000000000 Mg
   0.5015370000000000    0.7993479999999999    0.6461540000000000 Al
   0.4991650000000000    0.2173800000000000    0.8556470000000000 Al
   0.9976350000000000    0.2881760000000000    0.6413280000000000 Al
   0.0020220000000000    0.2967330000000000    0.1520660000000000 Al
   0.0016540000000000    0.7136860000000000    0.3602970000000000 Al
   0.4983520000000000    0.1947940000000000    0.3513380000000000 Al
   0.8569099999999999    0.6410040000000000    0.6034070000000000 Se
   0.7905250000000000    0.0001610000000000    0.2519160000000000 Se
   0.6483080000000000    0.1368370000000000    0.6067230000000000 Se
   0.3565400000000000    0.1520630000000000    0.1053560000000000 Se
   0.8546540000000000    0.3517810000000000    0.8951070000000000 Se
   0.2927950000000000    0.5009439999999999    0.7479340000000000 Se
   0.7139390000000000    0.4914440000000000    0.2511370000000000 Se
   0.1339660000000000    0.6388660000000000    0.1112720000000000 Se
   0.6411590000000000    0.8629060000000000    0.8852730000000000 Se
   0.3518840000000000    0.8566110000000000    0.3977570000000000 Se
   0.2222440000000000    0.0098240000000000    0.7460329999999999 Se
   0.1430430000000000    0.3560900000000000    0.3948090000000000 Se
   0.8131760000000000    0.6078040000000000    0.3200750000000000 O
   0.6711990000000000    0.6589080000000000    0.6438350000000000 O
   0.9874020000000000    0.7034200000000000    0.6855630000000000 O
   0.8796220000000000    0.7352990000000000    0.4839420000000000 O
   0.9385530000000000    0.9151370000000000    0.3188260000000000 O
   0.6547740000000000    0.9527460000000000    0.6338360000000000 O
   0.6679150000000000    0.0573750000000000    0.3459380000000000 O
   0.5862160000000000    0.0315240000000000    0.9077990000000000 O
   0.8561930000000000    0.1415250000000000    0.1697220000000000 O
   0.3099640000000000    0.1345520000000000    0.8153359999999999 O
   0.5261780000000000    0.1918830000000000    0.5062310000000000 O
   0.8305050000000000    0.1871130000000000    0.5757630000000000 O
   0.1692380000000000    0.1655970000000000    0.1429380000000000 O
   0.5889090000000000    0.2183740000000000    0.7137550000000000 O
   0.4782590000000000    0.2152770000000000    0.1971620000000000 O
   0.9215220000000000    0.2796480000000000    0.7864470000000000 O
   0.3908160000000000    0.2527990000000000    0.9894500000000001 O
   0.6750300000000000    0.2925920000000000    0.9267890000000000 O
   0.9781540000000000    0.2990760000000000    0.9950190000000000 O
   0.6513080000000000    0.3554940000000000    0.3384360000000000 O
   0.4465010000000000    0.4154820000000000    0.8082090000000000 O
   0.8820070000000000    0.4601130000000000    0.5929219999999999 O
   0.8329930000000000    0.4367710000000000    0.1508420000000000 O
   0.1497320000000000    0.4555890000000000    0.1378270000000000 O
   0.8377050000000000    0.5360390000000000    0.8801990000000000 O
   0.1951210000000000    0.5700350000000000    0.8492590000000000 O
   0.1135650000000000    0.5354730000000000    0.4057320000000000 O
   0.5736360000000000    0.5733100000000000    0.1770190000000000 O
   0.3568100000000000    0.6363030000000000    0.6599640000000000 O
   0.9983890000000000    0.6879570000000000    0.0183330000000000 O
   0.3077460000000000    0.6951560000000000    0.0640090000000000 O
   0.6129780000000000    0.7519250000000000    0.9974820000000000 O
   0.0909280000000000    0.7242090000000000    0.2200790000000000 O
   0.5094130000000000    0.7894560000000000    0.8019040000000000 O
   0.4161300000000000    0.7687140000000000    0.2971040000000000 O
   0.8236990000000000    0.8622870000000000    0.8446810000000000 O
   0.1692970000000000    0.8078410000000000    0.4320270000000000 O
   0.4770310000000000    0.8080410000000000    0.4977100000000000 O
   0.7044410000000000    0.8889190000000000    0.1733740000000000 O
   0.1691970000000000    0.8730230000000000    0.8368330000000000 O
   0.3816100000000000    0.9753020000000000    0.0932580000000000 O
   0.3359060000000000    0.9465900000000000    0.6502730000000000 O
   0.3470600000000000    0.0413720000000000    0.3694570000000000 O
   0.0667470000000000    0.0880980000000000    0.6853089999999999 O
   0.1096150000000000    0.2602910000000000    0.5120720000000000 O
   0.0187780000000000    0.2898900000000000    0.3068140000000000 O
   0.3316940000000000    0.3391270000000000    0.3614430000000000 O
   0.1864700000000000    0.3912030000000000    0.6781150000000000 O
