Li1 Pr1 Nd1 O2
1.0
   2.3689450000000001    0.9137340000000000    5.6377689999999996
  -2.3689450000000001    0.9137340000000000    5.6377689999999996
   0.0000000000000000   -2.0715900000000000    5.6806890000000001
Li Pr Nd O
1 1 1 2
direct
   0.0000000000000000    0.0000000000000000    0.5000000000000000 Li
   0.5000000000000000    0.5000000000000000    0.5000000000000000 Pr
   0.0000000000000000    0.0000000000000000    0.0000000000000000 Nd
   0.2599440000000000    0.2599440000000000    0.2572250000000000 O
   0.7400560000000000    0.7400560000000000    0.7427750000000000 O
