Li12 Ho12 Te8 O48
1.0
  -6.1894349999999996    6.1894349999999996    6.1894349999999996
   6.1894349999999996   -6.1894349999999996    6.1894349999999996
   6.1894349999999996    6.1894349999999996   -6.1894349999999996
Li Ho Te O
12 12 8 48
direct
   0.2500000000000000    0.6250000000000000    0.3750000000000000 Li
   0.7500000000000000    0.3750000000000000    0.6250000000000000 Li
   0.7500000000000000    0.8750000000000000    0.1250000000000000 Li
   0.3750000000000000    0.2500000000000000    0.6250000000000000 Li
   0.6250000000000000    0.7500000000000000    0.3750000000000000 Li
   0.2500000000000000    0.1250000000000000    0.8750000000000000 Li
   0.1250000000000000    0.7500000000000000    0.8750000000000000 Li
   0.8750000000000000    0.2500000000000000    0.1250000000000000 Li
   0.6250000000000000    0.3750000000000000    0.2500000000000000 Li
   0.3750000000000000    0.6250000000000000    0.7500000000000000 Li
   0.8750000000000000    0.1250000000000000    0.7500000000000000 Li
   0.1250000000000000    0.8750000000000000    0.2500000000000000 Li
   0.2500000000000000    0.3750000000000000    0.1250000000000000 Ho
   0.7500000000000000    0.6250000000000000    0.8750000000000000 Ho
   0.7500000000000000    0.1250000000000000    0.3750000000000000 Ho
   0.1250000000000000    0.2500000000000000    0.3750000000000000 Ho
   0.3750000000000000    0.7500000000000000    0.1250000000000000 Ho
   0.2500000000000000    0.8750000000000000    0.6250000000000000 Ho
   0.8750000000000000    0.7500000000000000    0.6250000000000000 Ho
   0.6250000000000000    0.2500000000000000    0.8750000000000000 Ho
   0.3750000000000000    0.1250000000000000    0.2500000000000000 Ho
   0.6250000000000000    0.8750000000000000    0.7500000000000000 Ho
   0.1250000000000000    0.3750000000000000    0.7500000000000000 Ho
   0.8750000000000000    0.6250000000000000    0.2500000000000000 Ho
   0.0000000000000000    0.0000000000000000    0.0000000000000000 Te
   0.5000000000000000    0.0000000000000000    0.5000000000000000 Te
   0.0000000000000000    0.5000000000000000    0.5000000000000000 Te
   0.5000000000000000    0.0000000000000000    0.0000000000000000 Te
   0.5000000000000000    0.5000000000000000    0.0000000000000000 Te
   0.5000000000000000    0.5000000000000000    0.5000000000000000 Te
   0.0000000000000000    0.0000000000000000    0.5000000000000000 Te
   0.0000000000000000    0.5000000000000000    0.0000000000000000 Te
   0.4724060000000000    0.3793130000000000    0.3002110000000000 O
   0.5275940000000000    0.6206870000000000    0.6997890000000000 O
   0.5791020000000000    0.1721940000000000    0.1997890000000000 O
   0.9208980000000000    0.1206870000000000    0.5930920000000000 O
   0.3002110000000000    0.4724060000000000    0.3793130000000000 O
   0.3278060000000000    0.9208980000000000    0.3002110000000000 O
   0.4208980000000000    0.8278060000000000    0.8002110000000000 O
   0.0791020000000000    0.8793130000000000    0.4069080000000000 O
   0.6997890000000000    0.5275940000000000    0.6206870000000000 O
   0.6721940000000000    0.0791020000000000    0.6997890000000000 O
   0.0275940000000000    0.3278060000000000    0.9069080000000000 O
   0.1997890000000000    0.5791020000000000    0.1721940000000000 O
   0.1206870000000000    0.0275940000000000    0.1997890000000000 O
   0.9724060000000000    0.6721940000000000    0.0930920000000000 O
   0.8002110000000000    0.4208980000000000    0.8278060000000000 O
   0.8793130000000000    0.9724060000000000    0.8002110000000000 O
   0.5930920000000000    0.9208980000000000    0.1206870000000000 O
   0.1721940000000000    0.4724060000000000    0.5930920000000000 O
   0.4069080000000000    0.0791020000000000    0.8793130000000000 O
   0.8278060000000000    0.5275940000000000    0.4069080000000000 O
   0.9069080000000000    0.0275940000000000    0.3278060000000000 O
   0.3793130000000000    0.5791020000000000    0.9069080000000000 O
   0.0930920000000000    0.9724060000000000    0.6721940000000000 O
   0.6206870000000000    0.4208980000000000    0.0930920000000000 O
   0.3793130000000000    0.3002110000000000    0.4724060000000000 O
   0.5791020000000000    0.9069080000000000    0.3793130000000000 O
   0.6206870000000000    0.6997890000000000    0.5275940000000000 O
   0.4208980000000000    0.0930920000000000    0.6206870000000000 O
   0.1206870000000000    0.5930920000000000    0.9208980000000000 O
   0.0275940000000000    0.1997890000000000    0.1206870000000000 O
   0.8793130000000000    0.4069080000000000    0.0791020000000000 O
   0.9724060000000000    0.8002110000000000    0.8793130000000000 O
   0.3278060000000000    0.9069080000000000    0.0275940000000000 O
   0.9208980000000000    0.3002110000000000    0.3278060000000000 O
   0.6721940000000000    0.0930920000000000    0.9724060000000000 O
   0.0791020000000000    0.6997890000000000    0.6721940000000000 O
   0.1721940000000000    0.1997890000000000    0.5791020000000000 O
   0.4724060000000000    0.5930920000000000    0.1721940000000000 O
   0.8278060000000000    0.8002110000000000    0.4208980000000000 O
   0.5275940000000000    0.4069080000000000    0.8278060000000000 O
   0.3002110000000000    0.3278060000000000    0.9208980000000000 O
   0.6997890000000000    0.6721940000000000    0.0791020000000000 O
   0.1997890000000000    0.1206870000000000    0.0275940000000000 O
   0.8002110000000000    0.8793130000000000    0.9724060000000000 O
   0.9069080000000000    0.3793130000000000    0.5791020000000000 O
   0.0930920000000000    0.6206870000000000    0.4208980000000000 O
   0.5930920000000000    0.1721940000000000    0.4724060000000000 O
   0.4069080000000000    0.8278060000000000    0.5275940000000000 O
