Ba8 Li12 P28 O84
1.0
   8.7138299999999997    0.0000000000000000    0.0000000000000000
   0.0000000000000000   11.7919009999999993    0.0000000000000000
   0.0000000000000000    4.5446190000000000   17.6765000000000008
Ba Li P O
8 12 28 84
direct
   0.4441290000000000    0.5274100000000000    0.8186160000000000 Ba
   0.0558710000000000    0.5274100000000000    0.3186160000000000 Ba
   0.5558710000000000    0.4725900000000000    0.1813840000000000 Ba
   0.0683760000000000    0.9654440000000000    0.1962340000000000 Ba
   0.4316240000000000    0.9654440000000000    0.6962340000000000 Ba
   0.9316240000000000    0.0345560000000000    0.8037660000000000 Ba
   0.9441290000000000    0.4725900000000000    0.6813840000000000 Ba
   0.5683760000000000    0.0345560000000000    0.3037660000000000 Ba
   0.3534130000000000    0.4841560000000000    0.4649910000000000 Li
   0.8646470000000001    0.9987560000000000    0.4553210000000000 Li
   0.6465870000000000    0.5158440000000000    0.5350090000000000 Li
   0.6353529999999999    0.9987560000000000    0.9553210000000000 Li
   0.8534130000000000    0.5158440000000000    0.0350090000000000 Li
   0.1465870000000000    0.4841560000000000    0.9649910000000000 Li
   0.1353530000000000    0.0012440000000000    0.5446790000000000 Li
   0.2254590000000000    0.6356550000000000    0.1546890000000000 Li
   0.3646470000000000    0.0012440000000000    0.0446790000000000 Li
   0.7254590000000000    0.3643450000000000    0.3453110000000000 Li
   0.7745410000000000    0.3643450000000000    0.8453110000000000 Li
   0.2745410000000000    0.6356550000000000    0.6546890000000000 Li
   0.9402620000000000    0.2462140000000000    0.2556060000000000 P
   0.1636960000000000    0.1178500000000000    0.3622020000000000 P
   0.0969290000000000    0.2955560000000000    0.8863810000000000 P
   0.8792190000000000    0.1572900000000000    0.9990110000000000 P
   0.8939330000000000    0.7827550000000000    0.3860670000000000 P
   0.0597380000000000    0.7537860000000000    0.7443940000000000 P
   0.6366510000000000    0.3310180000000000    0.0088410000000000 P
   0.6060670000000000    0.7827550000000000    0.8860670000000000 P
   0.3363040000000000    0.1178500000000000    0.8622020000000000 P
   0.8568850000000000    0.6132040000000000    0.8621259999999999 P
   0.1207810000000000    0.8427100000000000    0.0009890000000000 P
   0.6207810000000000    0.1572900000000000    0.4990110000000000 P
   0.3633490000000000    0.6689820000000000    0.9911590000000000 P
   0.5969290000000000    0.7044440000000000    0.6136190000000000 P
   0.3939330000000000    0.2172450000000000    0.1139330000000000 P
   0.8363040000000000    0.8821500000000000    0.6377980000000000 P
   0.6636960000000000    0.8821500000000000    0.1377980000000000 P
   0.1366510000000000    0.6689820000000000    0.4911590000000000 P
   0.4030710000000000    0.2955560000000000    0.3863810000000000 P
   0.5597380000000000    0.2462140000000000    0.7556060000000000 P
   0.6431150000000000    0.6132040000000000    0.3621260000000000 P
   0.9030710000000000    0.7044440000000000    0.1136190000000000 P
   0.3792190000000000    0.8427100000000000    0.5009890000000000 P
   0.8633490000000000    0.3310180000000000    0.5088410000000000 P
   0.3568850000000000    0.3867960000000000    0.6378740000000001 P
   0.4402620000000000    0.7537860000000000    0.2443940000000000 P
   0.1060670000000000    0.2172450000000000    0.6139330000000000 P
   0.1431150000000000    0.3867960000000000    0.1378740000000000 P
   0.6854290000000000    0.8244460000000000    0.6108580000000000 O
   0.3642860000000000    0.8686680000000000    0.2402490000000000 O
   0.1514970000000000    0.6451870000000000    0.7438650000000000 O
   0.4818340000000000    0.2565840000000000    0.0334560000000000 O
   0.7065350000000000    0.6085860000000000    0.6086460000000000 O
   0.2130580000000000    0.0594280000000000    0.3020000000000000 O
   0.2042410000000000    0.4496970000000000    0.1946860000000000 O
   0.5181660000000000    0.7434160000000000    0.9665440000000000 O
   0.1580160000000000    0.5775430000000000    0.4472230000000000 O
   0.8667910000000000    0.3717570000000000    0.4240080000000000 O
   0.1945540000000000    0.1091320000000000    0.6120450000000000 O
   0.2957590000000000    0.4496970000000000    0.6946860000000000 O
   0.3145710000000000    0.1755540000000000    0.3891420000000000 O
   0.1854290000000000    0.1755540000000000    0.8891420000000000 O
   0.0643290000000000    0.2356960000000000    0.3235220000000000 O
   0.9818340000000000    0.7434160000000000    0.4665440000000000 O
   0.8419840000000000    0.4224570000000000    0.5527770000000000 O
   0.5170230000000000    0.3170710000000000    0.3219030000000000 O
   0.8054460000000000    0.8908680000000000    0.3879550000000000 O
   0.3667910000000000    0.6282430000000000    0.0759920000000000 O
   0.0181660000000000    0.2565840000000000    0.5334560000000000 O
   0.3054460000000000    0.1091320000000000    0.1120450000000000 O
   0.6945540000000000    0.8908680000000000    0.8879550000000000 O
   0.9517340000000000    0.7286760000000000    0.8195410000000000 O
   0.3419840000000000    0.5775430000000000    0.9472230000000000 O
   0.9177850000000000    0.9488170000000000    0.5678930000000000 O
   0.0053790000000000    0.2609370000000000    0.9649520000000000 O
   0.5053790000000000    0.7390630000000000    0.5350480000000000 O
   0.3485030000000000    0.6451870000000000    0.2438650000000000 O
   0.9829770000000000    0.3170710000000000    0.8219030000000001 O
   0.7130580000000000    0.9405720000000000    0.1980000000000000 O
   0.6357140000000000    0.1313320000000000    0.7597510000000000 O
   0.2934650000000000    0.3914140000000000    0.3913540000000000 O
   0.7934650000000000    0.6085860000000000    0.1086460000000000 O
   0.5822150000000000    0.9488170000000000    0.0678930000000000 O
   0.5643290000000000    0.7643040000000000    0.1764780000000000 O
   0.4509110000000000    0.9310140000000000    0.4381790000000000 O
   0.4979170000000000    0.2207580000000000    0.1789340000000000 O
   0.0490890000000000    0.9310140000000000    0.9381790000000000 O
   0.2009080000000000    0.8758290000000000    0.0659520000000000 O
   0.5020829999999999    0.7792420000000000    0.8210660000000000 O
   0.2990920000000000    0.8758290000000000    0.5659520000000000 O
   0.8145710000000000    0.8244460000000000    0.1108580000000000 O
   0.0822150000000000    0.0511830000000000    0.4321070000000000 O
   0.6332090000000000    0.3717570000000000    0.9240080000000001 O
   0.2342120000000000    0.7662040000000000    0.9616340000000000 O
   0.2815080000000000    0.3309630000000000    0.1009210000000000 O
   0.7009080000000000    0.1241710000000000    0.4340480000000000 O
   0.0170230000000000    0.6829290000000000    0.1780970000000000 O
   0.7657880000000000    0.2337960000000000    0.0383660000000000 O
   0.5482660000000000    0.7286760000000000    0.3195410000000000 O
   0.8642860000000000    0.1313320000000000    0.2597510000000000 O
   0.2869420000000000    0.0594280000000000    0.8020000000000000 O
   0.7815080000000000    0.6690370000000000    0.3990790000000000 O
   0.9979170000000001    0.7792420000000000    0.3210660000000000 O
   0.6580160000000000    0.4224570000000000    0.0527770000000000 O
   0.0482660000000000    0.2713240000000000    0.1804590000000000 O
   0.2657880000000000    0.7662040000000000    0.4616340000000000 O
   0.4454860000000000    0.4563140000000000    0.5714850000000000 O
   0.0020830000000000    0.2207580000000000    0.6789340000000000 O
   0.9509110000000000    0.0689860000000000    0.0618210000000000 O
   0.5545140000000000    0.5436860000000000    0.4285150000000000 O
   0.7869420000000000    0.9405720000000000    0.6980000000000000 O
   0.0545140000000000    0.4563140000000000    0.0714850000000000 O
   0.9454860000000000    0.5436860000000000    0.9285150000000000 O
   0.5490890000000000    0.0689860000000000    0.5618210000000000 O
   0.4517340000000000    0.2713240000000000    0.6804590000000000 O
   0.7184920000000000    0.6690370000000000    0.8990790000000000 O
   0.4356710000000000    0.2356960000000000    0.8235220000000000 O
   0.4177850000000000    0.0511830000000000    0.9321070000000000 O
   0.1332090000000000    0.6282430000000000    0.5759919999999999 O
   0.2065350000000000    0.3914140000000000    0.8913540000000000 O
   0.4829770000000000    0.6829290000000000    0.6780969999999999 O
   0.8485030000000000    0.3548130000000000    0.2561350000000000 O
   0.7957590000000000    0.5503030000000000    0.8053140000000000 O
   0.7042410000000000    0.5503030000000000    0.3053140000000000 O
   0.6514970000000000    0.3548130000000000    0.7561350000000000 O
   0.7342120000000000    0.2337960000000000    0.5383660000000000 O
   0.7990920000000000    0.1241710000000000    0.9340480000000000 O
   0.4946210000000000    0.2609370000000000    0.4649520000000000 O
   0.9356710000000000    0.7643040000000000    0.6764780000000000 O
   0.1357140000000000    0.8686680000000000    0.7402490000000000 O
   0.2184920000000000    0.3309630000000000    0.6009210000000000 O
   0.9946210000000000    0.7390630000000000    0.0350480000000000 O
