ALGO = Fast
EDIFF = 0.0036000000000000003
ENCUT = 520
IBRION = 2
ISIF = 3
ISMEAR = -5
ISPIN = 2
LASPH = True
LMAXMIX = 4
LORBIT = 11
LREAL = Auto
LWAVE = False
MAGMOM = 4*-0.0 4*0.416 1*0.007 1*0.009 1*0.008 2*0.007 1*0.008 1*0.009 2*0.007 1*0.009 1*0.008 2*0.007 1*0.008 1*0.009 1*0.007 1*0.03 1*0.048 1*0.051 1*0.038 1*0.014 1*0.043 1*0.053 1*0.003 1*0.05 1*0.007 1*0.003 2*0.063 1*0.007 1*0.003 1*0.05 1*0.003 1*0.053 1*0.043 1*0.014 1*0.051 1*0.038 1*0.048 2*0.03 1*0.048 1*0.038 1*0.051 1*0.014 1*0.043 1*0.053 1*0.003 1*0.05 1*0.003 1*0.007 2*0.063 1*0.003 1*0.007 1*0.05 1*0.003 1*0.053 1*0.043 1*0.014 1*0.038 1*0.051 1*0.048 1*0.03
NELM = 100
NSW = 99
PREC = Accurate
SIGMA = 0.05
