pymatgen with grid density = 1258 / number of atoms
0
Gamma
2 3 2
