Li4 Sn4 P16 O48
1.0
  13.0949570000000008    0.0000000000000000    0.0000000000000000
   0.0000000000000000    7.1827860000000001    0.0000000000000000
   0.0000000000000000    7.0122249999999999    9.6566179999999999
Li Sn P O
4 4 16 48
direct
   0.2184530000000000    0.5699550000000000    0.9423950000000000 Li
   0.7184530000000000    0.4300450000000000    0.5576050000000000 Li
   0.2815470000000000    0.5699550000000000    0.4423950000000000 Li
   0.7815470000000000    0.4300450000000000    0.0576050000000000 Li
   0.7824140000000001    0.0313590000000000    0.9790640000000000 Sn
   0.2824140000000000    0.9686410000000000    0.5209360000000000 Sn
   0.7175859999999999    0.0313590000000000    0.4790640000000000 Sn
   0.2175860000000000    0.9686410000000000    0.0209360000000000 Sn
   0.6293330000000000    0.8363460000000000    0.8076070000000000 P
   0.4077060000000000    0.9232120000000000    0.8001100000000000 P
   0.8838480000000000    0.6149100000000000    0.7669300000000000 P
   0.1030320000000000    0.4958180000000000    0.7608130000000000 P
   0.6030320000000000    0.5041820000000000    0.7391870000000000 P
   0.3838480000000000    0.3850900000000000    0.7330700000000000 P
   0.9077060000000000    0.0767880000000000    0.6998900000000000 P
   0.1293330000000000    0.1636540000000000    0.6923930000000000 P
   0.8706670000000000    0.8363460000000000    0.3076070000000000 P
   0.0922940000000000    0.9232120000000000    0.3001100000000000 P
   0.6161520000000000    0.6149100000000000    0.2669300000000000 P
   0.3969680000000000    0.4958180000000000    0.2608130000000000 P
   0.8969680000000000    0.5041820000000000    0.2391870000000000 P
   0.1161520000000000    0.3850900000000000    0.2330700000000000 P
   0.5922940000000000    0.0767880000000000    0.1998900000000000 P
   0.3706670000000000    0.1636540000000000    0.1923930000000000 P
   0.3335290000000000    0.8275700000000000    0.9177400000000000 O
   0.1096180000000000    0.3065930000000000    0.9144400000000000 O
   0.8508350000000000    0.4063180000000000    0.9072810000000000 O
   0.7133190000000000    0.8079480000000000    0.9022460000000000 O
   0.5209180000000000    0.8449120000000000    0.8687560000000000 O
   0.3086120000000000    0.2855420000000000    0.8489890000000000 O
   0.1335850000000000    0.9726450000000000    0.8457249999999999 O
   0.6262760000000001    0.5904480000000000    0.8331160000000000 O
   0.6677830000000000    0.2948860000000000    0.7879400000000000 O
   0.4868370000000000    0.4243800000000000    0.7880600000000000 O
   0.9178250000000000    0.8015560000000000    0.7928840000000000 O
   0.8906910000000000    0.1433590000000000    0.7972430000000000 O
   0.3906910000000000    0.8566410000000000    0.7027570000000000 O
   0.9868370000000000    0.5756200000000000    0.7119400000000000 O
   0.4178250000000000    0.1984440000000000    0.7071160000000000 O
   0.1677830000000000    0.7051140000000000    0.7120600000000000 O
   0.1262760000000000    0.4095520000000000    0.6668840000000000 O
   0.6335850000000000    0.0273550000000000    0.6542750000000001 O
   0.8086120000000000    0.7144580000000000    0.6510110000000000 O
   0.0209180000000000    0.1550880000000000    0.6312440000000000 O
   0.3508350000000000    0.5936820000000000    0.5927190000000000 O
   0.2133190000000000    0.1920520000000000    0.5977540000000000 O
   0.6096180000000000    0.6934070000000000    0.5855600000000000 O
   0.8335290000000000    0.1724300000000000    0.5822600000000000 O
   0.1664710000000000    0.8275700000000000    0.4177400000000000 O
   0.3903820000000000    0.3065930000000000    0.4144400000000000 O
   0.7866810000000000    0.8079480000000000    0.4022460000000000 O
   0.6491650000000000    0.4063180000000000    0.4072810000000000 O
   0.9790820000000000    0.8449120000000000    0.3687560000000000 O
   0.1913880000000000    0.2855420000000000    0.3489890000000000 O
   0.3664150000000000    0.9726450000000000    0.3457250000000000 O
   0.8737239999999999    0.5904480000000000    0.3331160000000000 O
   0.8322170000000000    0.2948860000000000    0.2879400000000000 O
   0.5821750000000000    0.8015560000000000    0.2928840000000000 O
   0.0131630000000000    0.4243800000000000    0.2880600000000000 O
   0.6093090000000000    0.1433590000000000    0.2972430000000000 O
   0.1093090000000000    0.8566410000000000    0.2027570000000000 O
   0.0821750000000000    0.1984440000000000    0.2071160000000000 O
   0.5131630000000000    0.5756200000000000    0.2119400000000000 O
   0.3322170000000000    0.7051140000000000    0.2120600000000000 O
   0.3737240000000000    0.4095520000000000    0.1668840000000000 O
   0.8664150000000000    0.0273550000000000    0.1542750000000000 O
   0.6913880000000000    0.7144580000000000    0.1510110000000000 O
   0.4790820000000000    0.1550880000000000    0.1312440000000000 O
   0.2866810000000000    0.1920520000000000    0.0977540000000000 O
   0.1491650000000000    0.5936820000000000    0.0927190000000000 O
   0.8903820000000000    0.6934070000000000    0.0855600000000000 O
   0.6664710000000000    0.1724300000000000    0.0822600000000000 O
