Li4 Be2 Si2 O8
1.0
   3.4543149999999998   -3.4842040000000001    0.0000000000000000
   3.4543149999999998    3.4842040000000001    0.0000000000000000
   0.0000000000000000    0.0000000000000000    6.1536949999999999
Li Be Si O
4 2 2 8
direct
   0.6828680000000000    0.6828680000000000    0.5000000000000000 Li
   0.8024910000000000    0.1975090000000000    0.2500000000000000 Li
   0.3171320000000000    0.3171320000000000    0.0000000000000000 Li
   0.1975090000000000    0.8024910000000000    0.7500000000000000 Li
   0.6819780000000000    0.6819780000000000    0.0000000000000000 Be
   0.3180220000000000    0.3180220000000000    0.5000000000000000 Be
   0.1810810000000000    0.8189190000000000    0.2500000000000000 Si
   0.8189190000000000    0.1810810000000000    0.7500000000000000 Si
   0.7171540000000000    0.3469170000000000    0.9664120000000000 O
   0.6530830000000000    0.2828460000000000    0.5335880000000000 O
   0.1515120000000000    0.2216640000000000    0.7181220000000000 O
   0.8484880000000000    0.7783360000000000    0.2181220000000000 O
   0.7783360000000000    0.8484880000000000    0.7818780000000000 O
   0.2828460000000000    0.6530830000000000    0.4664120000000000 O
   0.2216640000000000    0.1515120000000000    0.2818780000000000 O
   0.3469170000000000    0.7171540000000000    0.0335880000000000 O
