pymatgen with grid density = 1076 / number of atoms
0
Gamma
2 4 1
