pymatgen with grid density = 937 / number of atoms
0
Monkhorst
4 4 4
