Na12 Li4 Y12 P12 C4 O60 F8
1.0
  11.0960003199999999    0.0000000000000000   -0.0000000000000000
  -0.0000000000000000   11.0960003199999999    0.0000000000000000
  -0.0000000000000000    0.0000000000000000   11.0960003199999999
Na Li Y P C O F
12 4 12 12 4 60 8
direct
   0.3341222600000000    0.3341222600000000    0.0097538200000000 Na
   0.3341222600000000    0.6658777400000000    0.9902461800000000 Na
   0.6658777400000000    0.6658777400000000    0.0097538200000000 Na
   0.6658777400000000    0.3341222600000000    0.9902461800000000 Na
   0.9902461800000000    0.6658777400000000    0.3341222600000000 Na
   0.9902461800000000    0.3341222600000000    0.6658777400000000 Na
   0.0097538200000000    0.3341222600000000    0.3341222600000000 Na
   0.0097538200000000    0.6658777400000000    0.6658777400000000 Na
   0.6658777400000000    0.9902461800000000    0.3341222600000000 Na
   0.6658777400000000    0.0097538200000000    0.6658777400000000 Na
   0.3341222600000000    0.0097538200000000    0.3341222600000000 Na
   0.3341222600000000    0.9902461800000000    0.6658777400000000 Na
   0.8016966599999999    0.8016966599999999    0.8016966599999999 Li
   0.8016966599999999    0.1983033400000000    0.1983033400000000 Li
   0.1983033400000000    0.1983033400000000    0.8016966599999999 Li
   0.1983033400000000    0.8016966599999999    0.1983033400000000 Li
   0.6856707100000000    0.0000000000000000   -0.0000000000000000 Y
   0.3143292900000000    0.0000000000000000   -0.0000000000000000 Y
  -0.0000000000000000    0.6856707100000000   -0.0000000000000000 Y
  -0.0000000000000000    0.3143292900000000   -0.0000000000000000 Y
  -0.0000000000000000    0.0000000000000000    0.6856707100000000 Y
  -0.0000000000000000    0.0000000000000000    0.3143292900000000 Y
   0.5000000000000000    0.5000000000000000    0.7464957700000000 Y
   0.5000000000000000    0.5000000000000000    0.2535042300000000 Y
   0.5000000000000000    0.7464957700000000    0.5000000000000000 Y
   0.5000000000000000    0.2535042300000000    0.5000000000000000 Y
   0.7464957700000000    0.5000000000000000    0.5000000000000000 Y
   0.2535042300000000    0.5000000000000000    0.5000000000000000 Y
   0.4840590400000000    0.1853478200000000    0.8146521799999999 P
   0.4840590400000000    0.8146521799999999    0.1853478200000000 P
   0.5159409600000000    0.8146521799999999    0.8146521799999999 P
   0.5159409600000000    0.1853478200000000    0.1853478200000000 P
   0.8146521799999999    0.5159409600000000    0.8146521799999999 P
   0.8146521799999999    0.4840590400000000    0.1853478200000000 P
   0.1853478200000000    0.4840590400000000    0.8146521799999999 P
   0.1853478200000000    0.5159409600000000    0.1853478200000000 P
   0.8146521799999999    0.1853478200000000    0.4840590400000000 P
   0.8146521799999999    0.8146521799999999    0.5159409600000000 P
   0.1853478200000000    0.8146521799999999    0.4840590400000000 P
   0.1853478200000000    0.1853478200000000    0.5159409600000000 P
   0.8813083800000000    0.1186916200000000    0.8813083800000000 C
   0.8813083800000000    0.8813083800000000    0.1186916200000000 C
   0.1186916200000000    0.8813083800000000    0.8813083800000000 C
   0.1186916200000000    0.1186916200000000    0.1186916200000000 C
   0.1456271000000000    0.3559129800000000    0.8543729000000000 O
   0.1456271000000000    0.6440870200000000    0.1456271000000000 O
   0.8543729000000000    0.6440870200000000    0.8543729000000000 O
   0.8543729000000000    0.3559129800000000    0.1456271000000000 O
   0.5002375900000000    0.6812548500000000    0.8458135000000000 O
   0.5002375900000000    0.3187451500000000    0.1541865000000000 O
   0.4997624100000000    0.3187451500000000    0.8458135000000000 O
   0.4997624100000000    0.6812548500000000    0.1541865000000000 O
   0.4997624100000000    0.1541865000000000    0.6812548500000000 O
   0.4997624100000000    0.8458135000000000    0.3187451500000000 O
   0.5002375900000000    0.8458135000000000    0.6812548500000000 O
   0.5002375900000000    0.1541865000000000    0.3187451500000000 O
   0.8458135000000000    0.5002375900000000    0.6812548500000000 O
   0.8458135000000000    0.4997624100000000    0.3187451500000000 O
   0.1541865000000000    0.4997624100000000    0.6812548500000000 O
   0.1541865000000000    0.5002375900000000    0.3187451500000000 O
   0.6812548500000000    0.5002375900000000    0.8458135000000000 O
   0.6812548500000000    0.4997624100000000    0.1541865000000000 O
   0.3187451500000000    0.4997624100000000    0.8458135000000000 O
   0.3187451500000000    0.5002375900000000    0.1541865000000000 O
   0.3559129800000000    0.1456271000000000    0.8543729000000000 O
   0.3559129800000000    0.8543729000000000    0.1456271000000000 O
   0.6440870200000000    0.8543729000000000    0.8543729000000000 O
   0.6440870200000000    0.1456271000000000    0.1456271000000000 O
   0.8853700100000000    0.4207046600000000    0.8853700100000000 O
   0.8853700100000000    0.5792953400000000    0.1146299900000000 O
   0.1146299900000000    0.5792953400000000    0.8853700100000000 O
   0.1146299900000000    0.4207046600000000    0.1146299900000000 O
   0.5792953400000000    0.1146299900000000    0.8853700100000000 O
   0.5792953400000000    0.8853700100000000    0.1146299900000000 O
   0.4207046600000000    0.8853700100000000    0.8853700100000000 O
   0.4207046600000000    0.1146299900000000    0.1146299900000000 O
   0.1541865000000000    0.6812548500000000    0.4997624100000000 O
   0.1541865000000000    0.3187451500000000    0.5002375900000000 O
   0.8458135000000000    0.3187451500000000    0.4997624100000000 O
   0.8458135000000000    0.6812548500000000    0.5002375900000000 O
   0.6812548500000000    0.1541865000000000    0.4997624100000000 O
   0.6812548500000000    0.8458135000000000    0.5002375900000000 O
   0.3187451500000000    0.8458135000000000    0.4997624100000000 O
   0.3187451500000000    0.1541865000000000    0.5002375900000000 O
   0.8543729000000000    0.1456271000000000    0.3559129800000000 O
   0.8543729000000000    0.8543729000000000    0.6440870200000000 O
   0.1456271000000000    0.8543729000000000    0.3559129800000000 O
   0.1456271000000000    0.1456271000000000    0.6440870200000000 O
   0.8853700100000000    0.1146299900000000    0.5792953400000000 O
   0.8853700100000000    0.8853700100000000    0.4207046600000000 O
   0.1146299900000000    0.8853700100000000    0.5792953400000000 O
   0.1146299900000000    0.1146299900000000    0.4207046600000000 O
   0.8346929400000000    0.8346929400000000    0.0231375600000000 O
   0.8346929400000000    0.1653070600000000    0.9768624400000000 O
   0.1653070600000000    0.1653070600000000    0.0231375600000000 O
   0.1653070600000000    0.8346929400000000    0.9768624400000000 O
   0.9768624400000000    0.8346929400000000    0.1653070600000000 O
   0.9768624400000000    0.1653070600000000    0.8346929400000000 O
   0.0231375600000000    0.1653070600000000    0.1653070600000000 O
   0.0231375600000000    0.8346929400000000    0.8346929400000000 O
   0.8346929400000000    0.0231375600000000    0.8346929400000000 O
   0.8346929400000000    0.9768624400000000    0.1653070600000000 O
   0.1653070600000000    0.9768624400000000    0.8346929400000000 O
   0.1653070600000000    0.0231375600000000    0.1653070600000000 O
   0.6177745900000000    0.6177745900000000    0.6177745900000000 F
   0.6177745900000000    0.3822254100000000    0.3822254100000000 F
   0.3822254100000000    0.3822254100000000    0.6177745900000000 F
   0.3822254100000000    0.6177745900000000    0.3822254100000000 F
   0.6123940600000000    0.6123940600000000    0.3876059400000000 F
   0.6123940600000000    0.3876059400000000    0.6123940600000000 F
   0.3876059400000000    0.3876059400000000    0.3876059400000000 F
   0.3876059400000000    0.6123940600000000    0.6123940600000000 F
