Li4 P4 H16 C4 O12
1.0
   4.6858560000000002    0.0000000000000000    0.0000000000000000
   0.0000000000000000    9.4081989999999998    0.0000000000000000
   0.0000000000000000    1.0455989999999999    9.5655079999999995
Li P H C O
4 4 16 4 12
direct
   0.1011010000000000    0.4913400000000000    0.6395080000000000 Li
   0.6011010000000000    0.5086600000000000    0.8604920000000000 Li
   0.8988990000000000    0.5086600000000000    0.3604920000000000 Li
   0.3988990000000000    0.4913400000000000    0.1395080000000000 Li
   0.1012560000000000    0.2980240000000000    0.9227620000000000 P
   0.6012560000000000    0.7019760000000000    0.5772380000000000 P
   0.8987440000000000    0.7019760000000000    0.0772380000000000 P
   0.3987440000000000    0.2980240000000000    0.4227620000000000 P
   0.6799060000000000    0.2759370000000000    0.0243880000000000 H
   0.1799060000000000    0.7240630000000000    0.4756120000000000 H
   0.3200940000000000    0.7240630000000000    0.9756120000000000 H
   0.8200940000000000    0.2759370000000000    0.5243880000000000 H
   0.0185480000000000    0.0949120000000000    0.7969140000000000 H
   0.5185480000000000    0.9050880000000000    0.7030860000000000 H
   0.9814520000000000    0.9050880000000000    0.2030860000000000 H
   0.4814520000000000    0.0949120000000000    0.2969140000000000 H
   0.3679440000000000    0.1666780000000000    0.7657040000000001 H
   0.8679440000000000    0.8333220000000000    0.7342959999999999 H
   0.6320560000000000    0.8333220000000000    0.2342960000000000 H
   0.1320560000000000    0.1666780000000000    0.2657040000000000 H
   0.2880860000000000    0.0592030000000000    0.9267069999999999 H
   0.7880860000000000    0.9407970000000000    0.5732930000000001 H
   0.7119140000000000    0.9407970000000000    0.0732930000000000 H
   0.2119140000000000    0.0592030000000000    0.4267070000000000 H
   0.2041880000000000    0.1398440000000000    0.8457480000000001 C
   0.7041880000000000    0.8601560000000000    0.6542519999999999 C
   0.7958120000000000    0.8601560000000000    0.1542520000000000 C
   0.2958120000000000    0.1398440000000000    0.3457480000000000 C
   0.8832300000000000    0.2448600000000000    0.0453350000000000 O
   0.3832300000000000    0.7551400000000000    0.4546650000000000 O
   0.1167700000000000    0.7551400000000000    0.9546650000000000 O
   0.6167700000000000    0.2448600000000000    0.5453350000000000 O
   0.3697900000000000    0.3572820000000000    0.9884260000000000 O
   0.8697900000000000    0.6427180000000000    0.5115740000000000 O
   0.6302100000000000    0.6427180000000000    0.0115740000000000 O
   0.1302100000000000    0.3572820000000000    0.4884260000000000 O
   0.9518529999999999    0.4054200000000000    0.8166280000000000 O
   0.4518530000000000    0.5945800000000000    0.6833720000000000 O
   0.0481470000000000    0.5945800000000000    0.1833720000000000 O
   0.5481470000000001    0.4054200000000000    0.3166280000000000 O
