Li4 Mg12 P12 O44
1.0
   8.4036220000000004    0.0000000000000000    0.0000000000000000
   0.0000000000000000    9.1572309999999995    0.0000000000000000
   0.0000000000000000    0.0000000000000000   10.7291919999999994
Li Mg P O
4 12 12 44
direct
   0.0252600000000000    0.8127540000000000    0.7500000000000000 Li
   0.4747400000000000    0.3127540000000000    0.7500000000000000 Li
   0.9747400000000001    0.1872460000000000    0.2500000000000000 Li
   0.5252599999999999    0.6872460000000000    0.2500000000000000 Li
   0.8595510000000000    0.5455860000000000    0.0899750000000000 Mg
   0.6404490000000000    0.0455860000000000    0.4100250000000000 Mg
   0.1404490000000000    0.4544140000000000    0.5899750000000000 Mg
   0.3595510000000000    0.9544140000000000    0.9100250000000000 Mg
   0.1404490000000000    0.4544140000000000    0.9100250000000000 Mg
   0.3595510000000000    0.9544140000000000    0.5899750000000000 Mg
   0.8595510000000000    0.5455860000000000    0.4100250000000000 Mg
   0.6404490000000000    0.0455860000000000    0.0899750000000000 Mg
   0.0000000000000000    0.0000000000000000    0.0000000000000000 Mg
   0.5000000000000000    0.5000000000000000    0.5000000000000000 Mg
   0.0000000000000000    0.0000000000000000    0.5000000000000000 Mg
   0.5000000000000000    0.5000000000000000    0.0000000000000000 Mg
   0.2140630000000000    0.7108430000000000    0.1090660000000000 P
   0.2859370000000000    0.2108430000000000    0.3909340000000000 P
   0.7859370000000000    0.2891570000000000    0.6090660000000000 P
   0.7140630000000000    0.7891570000000000    0.8909340000000000 P
   0.7859370000000000    0.2891570000000000    0.8909340000000000 P
   0.7140630000000000    0.7891570000000000    0.6090660000000000 P
   0.2140630000000000    0.7108430000000000    0.3909340000000000 P
   0.2859370000000000    0.2108430000000000    0.1090660000000000 P
   0.2895220000000000    0.6468420000000000    0.7500000000000000 P
   0.2104780000000000    0.1468420000000000    0.7500000000000000 P
   0.7104780000000001    0.3531580000000000    0.2500000000000000 P
   0.7895219999999999    0.8531580000000000    0.2500000000000000 P
   0.2007980000000000    0.8501220000000000    0.0299750000000000 O
   0.2992020000000000    0.3501220000000000    0.4700250000000000 O
   0.7992020000000000    0.1498780000000000    0.5299750000000000 O
   0.7007980000000000    0.6498780000000000    0.9700250000000000 O
   0.7992020000000000    0.1498780000000000    0.9700250000000000 O
   0.7007980000000000    0.6498780000000000    0.5299750000000000 O
   0.2007980000000000    0.8501220000000000    0.4700250000000000 O
   0.2992020000000000    0.3501220000000000    0.0299750000000000 O
   0.6075920000000000    0.8916160000000000    0.2500000000000000 O
   0.8924080000000000    0.3916160000000000    0.2500000000000000 O
   0.3924080000000000    0.1083840000000000    0.7500000000000000 O
   0.1075920000000000    0.6083840000000000    0.7500000000000000 O
   0.8553400000000000    0.9273810000000000    0.1324800000000000 O
   0.6446600000000000    0.4273810000000000    0.3675200000000000 O
   0.1446600000000000    0.0726190000000000    0.6324800000000000 O
   0.3553400000000000    0.5726190000000000    0.8675200000000000 O
   0.1446600000000000    0.0726190000000000    0.8675200000000000 O
   0.3553400000000000    0.5726190000000000    0.6324800000000000 O
   0.8553400000000000    0.9273810000000000    0.3675200000000000 O
   0.6446600000000000    0.4273810000000000    0.1324800000000000 O
   0.3821080000000000    0.6495010000000000    0.1151240000000000 O
   0.1178920000000000    0.1495010000000000    0.3848760000000000 O
   0.6178920000000000    0.3504990000000000    0.6151240000000000 O
   0.8821080000000000    0.8504990000000000    0.8848760000000000 O
   0.6178920000000000    0.3504990000000000    0.8848760000000000 O
   0.8821080000000000    0.8504990000000000    0.6151240000000000 O
   0.3821080000000000    0.6495010000000000    0.3848760000000000 O
   0.1178920000000000    0.1495010000000000    0.1151240000000000 O
   0.3113020000000000    0.8150350000000000    0.7500000000000000 O
   0.1886980000000000    0.3150350000000000    0.7500000000000000 O
   0.6886980000000000    0.1849650000000000    0.2500000000000000 O
   0.8113020000000000    0.6849650000000000    0.2500000000000000 O
   0.0897880000000000    0.5984050000000000    0.0636160000000000 O
   0.4102120000000000    0.0984050000000000    0.4363840000000000 O
   0.9102120000000000    0.4015950000000000    0.5636160000000000 O
   0.5897880000000000    0.9015950000000000    0.9363840000000000 O
   0.9102120000000000    0.4015950000000000    0.9363840000000000 O
   0.5897880000000000    0.9015950000000000    0.5636160000000000 O
   0.0897880000000000    0.5984050000000000    0.4363840000000000 O
   0.4102120000000000    0.0984050000000000    0.0636160000000000 O
   0.1635340000000000    0.7591590000000000    0.2500000000000000 O
   0.3364660000000000    0.2591590000000000    0.2500000000000000 O
   0.8364660000000000    0.2408410000000000    0.7500000000000000 O
   0.6635340000000000    0.7408410000000000    0.7500000000000000 O
