Li10 Zn3 Ge4 O16
1.0
   5.3741899999999996    0.0000000000000000    0.0000000000000000
  -0.1699070000000000    6.4891340000000000    0.0000000000000000
  -0.3593560000000000   -0.3907530000000000   11.0436720000000008
Li Zn Ge O
10 3 4 16
direct
   0.3521300000000000    0.7428560000000000    0.9217140000000000 Li
   0.8533970000000000    0.5468680000000000    0.8251410000000000 Li
   0.8273180000000000    0.2641450000000000    0.5680120000000000 Li
   0.1763420000000000    0.9259039999999999    0.5097800000000000 Li
   0.8267080000000000    0.0349410000000000    0.3428960000000000 Li
   0.3903110000000000    0.9480430000000000    0.1855460000000000 Li
   0.0758370000000000    0.2017270000000000    0.1975220000000000 Li
   0.3748890000000000    0.5431360000000000    0.1690920000000000 Li
   0.6331960000000000    0.2572750000000000    0.0647450000000000 Li
   0.0109890000000000    0.4744990000000000    0.0550520000000000 Li
   0.6801600000000000    0.0284990000000000    0.8197360000000000 Zn
   0.2250360000000000    0.4962100000000000    0.6555020000000000 Zn
   0.8516710000000000    0.5481610000000000    0.3346810000000000 Zn
   0.1888400000000000    0.2393960000000000    0.9073770000000000 Ge
   0.7075310000000000    0.7622130000000000    0.5822880000000000 Ge
   0.3398760000000000    0.2755670000000000    0.3999230000000000 Ge
   0.8519760000000000    0.8086360000000000    0.0811700000000000 Ge
   0.7328500000000000    0.7771479999999999    0.9292080000000000 O
   0.8527680000000000    0.2624440000000000    0.9203040000000000 O
   0.3163270000000000    0.0160570000000000    0.8486450000000000 O
   0.2492060000000000    0.4771090000000000    0.8347510000000000 O
   0.8449390000000000    0.5467250000000000    0.6521370000000000 O
   0.7881380000000000    0.0046390000000000    0.6559080000000000 O
   0.3826820000000000    0.7200520000000000    0.5739480000000000 O
   0.2171400000000000    0.2466220000000000    0.5458290000000000 O
   0.6722480000000000    0.2988050000000000    0.4002850000000000 O
   0.8368510000000000    0.7966910000000000    0.4374500000000000 O
   0.2273250000000000    0.0426250000000000    0.3234990000000000 O
   0.1943780000000000    0.4584430000000000    0.3047220000000000 O
   0.7336490000000000    0.5749400000000000    0.1538110000000000 O
   0.7534430000000000    0.0302000000000000    0.1617620000000000 O
   0.1769640000000000    0.7556280000000000    0.0824280000000000 O
   0.2793160000000000    0.2840080000000000    0.0651080000000000 O
