pymatgen with grid density = 1161 / number of atoms
0
Gamma
3 2 2
