Li4 Sm4 C16 O40
1.0
   7.5088790000000003    0.0000000000000000    0.0000000000000000
   0.0000000000000000    9.5698530000000002    0.0000000000000000
   0.0000000000000000    3.2232910000000001   12.1747589999999999
Li Sm C O
4 4 16 40
direct
   0.3048830000000000    0.5914550000000000    0.2944290000000000 Li
   0.6951170000000000    0.4085450000000000    0.7055709999999999 Li
   0.3048830000000000    0.9085450000000000    0.7055709999999999 Li
   0.6951170000000000    0.0914550000000000    0.2944290000000000 Li
   0.7757790000000000    0.7133790000000000    0.2551690000000000 Sm
   0.2242210000000000    0.2866210000000000    0.7448310000000000 Sm
   0.7757790000000000    0.7866210000000000    0.7448310000000000 Sm
   0.2242210000000000    0.2133790000000000    0.2551690000000000 Sm
   0.8335770000000000    0.3710640000000000    0.2778080000000000 C
   0.1664230000000000    0.6289360000000001    0.7221919999999999 C
   0.8335770000000000    0.1289360000000000    0.7221919999999999 C
   0.1664230000000000    0.8710639999999999    0.2778080000000000 C
   0.8763960000000000    0.7500000000000000    0.0000000000000000 C
   0.1236040000000000    0.2500000000000000    0.0000000000000000 C
   0.6698530000000000    0.7500000000000000    0.0000000000000000 C
   0.3301470000000000    0.2500000000000000    0.0000000000000000 C
   0.3718220000000000    0.8826980000000000    0.2860270000000000 C
   0.6281780000000000    0.1173020000000000    0.7139730000000000 C
   0.3718220000000000    0.6173020000000000    0.7139730000000000 C
   0.6281780000000000    0.3826980000000000    0.2860270000000000 C
   0.7777650000000000    0.8341580000000000    0.4787990000000000 C
   0.2222350000000000    0.1658420000000000    0.5212010000000000 C
   0.7777650000000000    0.6658420000000000    0.5212010000000000 C
   0.2222350000000000    0.3341580000000000    0.4787990000000000 C
   0.5661760000000000    0.5081360000000000    0.2775580000000000 O
   0.4338240000000000    0.4918640000000000    0.7224420000000000 O
   0.5661760000000000    0.9918640000000000    0.7224420000000000 O
   0.4338240000000000    0.0081360000000000    0.2775580000000000 O
   0.9515870000000000    0.7624109999999999    0.0870140000000000 O
   0.0484130000000000    0.2375890000000000    0.9129860000000000 O
   0.9515870000000000    0.7375890000000001    0.9129860000000000 O
   0.0484130000000000    0.2624110000000000    0.0870140000000000 O
   0.5942950000000000    0.7487170000000000    0.0900580000000000 O
   0.4057050000000000    0.2512830000000000    0.9099420000000000 O
   0.5942950000000000    0.7512830000000000    0.9099420000000000 O
   0.4057050000000000    0.2487170000000000    0.0900580000000000 O
   0.7721040000000000    0.8855370000000000    0.3749040000000000 O
   0.2278960000000000    0.1144630000000000    0.6250960000000000 O
   0.7721040000000000    0.6144630000000000    0.6250960000000000 O
   0.2278960000000000    0.3855370000000000    0.3749040000000000 O
   0.2532730000000000    0.5193080000000000    0.1211030000000000 O
   0.7467270000000000    0.4806920000000000    0.8788970000000000 O
   0.2532730000000000    0.9806920000000000    0.8788970000000000 O
   0.7467270000000000    0.0193080000000000    0.1211030000000000 O
   0.7786890000000000    0.9069140000000000    0.5492120000000000 O
   0.2213110000000000    0.0930860000000000    0.4507880000000000 O
   0.7786890000000000    0.5930860000000000    0.4507880000000000 O
   0.2213110000000000    0.4069140000000000    0.5492120000000000 O
   0.4598560000000000    0.7671860000000000    0.2966030000000000 O
   0.5401440000000000    0.2328140000000000    0.7033970000000000 O
   0.4598560000000000    0.7328140000000000    0.7033970000000000 O
   0.5401440000000000    0.2671860000000000    0.2966030000000000 O
   0.8997070000000000    0.2452080000000000    0.2942060000000000 O
   0.1002930000000000    0.7547920000000000    0.7057940000000000 O
   0.8997070000000000    0.2547920000000000    0.7057940000000000 O
   0.1002930000000000    0.7452080000000000    0.2942060000000000 O
   0.7348380000000000    0.4257950000000000    0.9781590000000000 O
   0.2651620000000000    0.5742050000000000    0.0218410000000000 O
   0.7348380000000000    0.0742050000000000    0.0218410000000000 O
   0.2651620000000000    0.9257950000000000    0.9781590000000000 O
   0.9175930000000000    0.4893410000000000    0.2518420000000000 O
   0.0824070000000000    0.5106590000000000    0.7481580000000000 O
   0.9175930000000000    0.0106590000000000    0.7481580000000000 O
   0.0824070000000000    0.9893410000000000    0.2518420000000000 O
