pymatgen with grid density = 1189 / number of atoms
0
Gamma
1 1 1
