ALGO = Fast
EDIFF = 0.0009000000000000001
ENCUT = 520
IBRION = 2
ISIF = 3
ISMEAR = -5
ISPIN = 2
LASPH = True
LMAXMIX = 6
LORBIT = 11
LREAL = Auto
LWAVE = False
MAGMOM = 1*-0.002 3*-0.029 2*-0.027 1*0.253 1*0.283 1*0.253 1*0.283 1*0.267 1*0.266 1*0.267 1*0.266 1*0.468 1*0.198 1*0.415 1*0.185
NELM = 100
NSW = 99
PREC = Accurate
SIGMA = 0.05
