Li1 Pr1 Ge4 O12
1.0
   5.2805779099999999    0.0000000000000000    0.0000000000000000
   0.0000000000000000    5.2805779099999999    0.0000000000000000
   0.0000000000000000   -0.0000000000000000    7.6401255099999998
Li Pr Ge O
1 1 4 12
direct
   0.5000000000000000    0.5000000000000000   -0.0000000000000000 Li
   0.0000000000000000    0.0000000000000000    0.5000000000000000 Pr
  -0.0000000000000000    0.5000000000000000    0.7628678900000000 Ge
   0.0000000000000000    0.5000000000000000    0.2371321100000000 Ge
   0.5000000000000000   -0.0000000000000000    0.7628678900000000 Ge
   0.5000000000000000    0.0000000000000000    0.2371321100000000 Ge
   0.2447824600000000    0.2447824600000000    0.7386007900000000 O
   0.2447824600000000    0.2447824600000000    0.2613992100000000 O
   0.7552175400000000    0.7552175400000000    0.2613992100000000 O
   0.7552175400000000    0.7552175400000000    0.7386007900000000 O
   0.7552175400000000    0.2447824600000000    0.7386007900000000 O
   0.7552175400000000    0.2447824600000000    0.2613992100000000 O
   0.2447824600000000    0.7552175400000000    0.2613992100000000 O
   0.2447824600000000    0.7552175400000000    0.7386007900000000 O
  -0.0000000000000000    0.5000000000000000    0.5000000000000000 O
  -0.0000000000000000    0.5000000000000000   -0.0000000000000000 O
   0.5000000000000000   -0.0000000000000000    0.5000000000000000 O
   0.5000000000000000    0.0000000000000000   -0.0000000000000000 O
