pymatgen with grid density = 807 / number of atoms
0
Gamma
1 1 1
