Rb12 Li2 Nd22 Se24 Cl32 O72
1.0
  -8.0096159999999994    8.0096159999999994   12.5789869999999997
   8.0096159999999994   -8.0096159999999994   12.5789869999999997
   8.0096159999999994    8.0096159999999994  -12.5789869999999997
Rb Li Nd Se Cl O
12 2 22 24 32 72
direct
   0.6296659999999999    0.6202580000000000    0.2499240000000000 Rb
   0.3797420000000000    0.6296659999999999    0.0094070000000000 Rb
   0.8766550000000000    0.3766550000000000    0.2533090000000000 Rb
   0.1233450000000000    0.6233450000000000    0.7466910000000000 Rb
   0.6233450000000000    0.8766550000000000    0.5000000000000000 Rb
   0.8703340000000001    0.1202580000000000    0.9905929999999999 Rb
   0.6202580000000000    0.3703340000000000    0.9905929999999999 Rb
   0.1296660000000000    0.8797420000000000    0.0094070000000000 Rb
   0.1202580000000000    0.1296660000000000    0.2499240000000000 Rb
   0.3703340000000000    0.3797420000000000    0.7500760000000000 Rb
   0.8797420000000000    0.8703340000000001    0.7500760000000000 Rb
   0.3766550000000000    0.1233450000000000    0.5000000000000000 Rb
   0.7500000000000000    0.2500000000000000    0.5000000000000000 Li
   0.2500000000000000    0.7500000000000000    0.5000000000000000 Li
   0.9966790000000000    0.2541600000000000    0.5000000000000000 Nd
   0.2541600000000000    0.7541600000000001    0.2574800000000000 Nd
   0.2500000000000000    0.5070480000000001    0.2570480000000000 Nd
   0.2500000000000000    0.2500000000000000    0.0000000000000000 Nd
   0.0070480000000000    0.7500000000000000    0.2570480000000000 Nd
   0.5000000000000000    0.0000000000000000    0.0000000000000000 Nd
   0.5033210000000000    0.0033210000000000    0.2574800000000000 Nd
   0.0000000000000000    0.0000000000000000    0.5000000000000000 Nd
   0.2458400000000000    0.5033210000000000    0.5000000000000000 Nd
   0.7500000000000000    0.4929520000000000    0.7429519999999999 Nd
   0.9929519999999999    0.2500000000000000    0.7429519999999999 Nd
   0.2500000000000000    0.9929519999999999    0.7429519999999999 Nd
   0.7458399999999999    0.2458400000000000    0.7425200000000000 Nd
   0.7500000000000000    0.7500000000000000    0.0000000000000000 Nd
   0.5000000000000000    0.5000000000000000    0.5000000000000000 Nd
   0.7541600000000001    0.4966790000000000    0.5000000000000000 Nd
   0.7500000000000000    0.0070480000000000    0.2570480000000000 Nd
   0.0033210000000000    0.7458399999999999    0.5000000000000000 Nd
   0.0000000000000000    0.5000000000000000    0.0000000000000000 Nd
   0.4966790000000000    0.9966790000000000    0.7425200000000000 Nd
   0.4929520000000000    0.7500000000000000    0.7429519999999999 Nd
   0.5070480000000001    0.2500000000000000    0.2570480000000000 Nd
   0.7794060000000000    0.0637690000000000    0.5000000000000000 Se
   0.0107410000000000    0.2816830000000000    0.9720299999999999 Se
   0.2794060000000000    0.7794060000000000    0.7156370000000000 Se
   0.9362310000000000    0.4362310000000000    0.7156370000000000 Se
   0.9612889999999999    0.9892590000000000    0.2709430000000000 Se
   0.8096530000000000    0.7816830000000000    0.2709430000000000 Se
   0.2183170000000000    0.4892590000000000    0.0279700000000000 Se
   0.4612890000000000    0.1903470000000000    0.9720299999999999 Se
   0.7205940000000000    0.2205940000000000    0.2843630000000000 Se
   0.0387110000000000    0.0107410000000000    0.7290570000000000 Se
   0.1903470000000000    0.2183170000000000    0.7290570000000000 Se
   0.9892590000000000    0.7183170000000000    0.0279700000000000 Se
   0.4362310000000000    0.7205940000000000    0.5000000000000000 Se
   0.5107410000000000    0.5387110000000001    0.7290570000000000 Se
   0.4892590000000000    0.4612890000000000    0.2709430000000000 Se
   0.2205940000000000    0.9362310000000000    0.5000000000000000 Se
   0.3096530000000000    0.0387110000000000    0.0279700000000000 Se
   0.6903470000000000    0.9612889999999999    0.9720299999999999 Se
   0.5387110000000001    0.8096530000000000    0.0279700000000000 Se
   0.2816830000000000    0.3096530000000000    0.2709430000000000 Se
   0.7183170000000000    0.6903470000000000    0.7290570000000000 Se
   0.7816830000000000    0.5107410000000000    0.9720299999999999 Se
   0.5637690000000000    0.2794060000000000    0.5000000000000000 Se
   0.0637690000000000    0.5637690000000000    0.2843630000000000 Se
   0.8156240000000000    0.3156240000000000    0.9777860000000000 Cl
   0.4234220000000000    0.9234220000000000    0.5000000000000000 Cl
   0.4227610000000000    0.4227610000000000    0.0000000000000000 Cl
   0.8378380000000000    0.8156240000000000    0.5000000000000000 Cl
   0.5765780000000000    0.0765780000000000    0.5000000000000000 Cl
   0.6905850000000000    0.4325790000000000    0.2734890000000000 Cl
   0.4325790000000000    0.1590900000000000    0.7419930000000000 Cl
   0.1621620000000000    0.1843760000000000    0.5000000000000000 Cl
   0.5772389999999999    0.5772389999999999    0.0000000000000000 Cl
   0.9227610000000001    0.9227610000000001    0.0000000000000000 Cl
   0.6621620000000000    0.1621620000000000    0.9777860000000000 Cl
   0.0765780000000000    0.5765780000000000    0.5000000000000000 Cl
   0.1843760000000000    0.6843760000000000    0.0222140000000000 Cl
   0.4170970000000000    0.6905850000000000    0.2580070000000000 Cl
   0.9170970000000001    0.6590900000000000    0.7265110000000000 Cl
   0.0772390000000000    0.0772390000000000    0.0000000000000000 Cl
   0.5674210000000000    0.8409100000000000    0.2580070000000000 Cl
   0.8409100000000000    0.5829029999999999    0.2734890000000000 Cl
   0.5829029999999999    0.3094150000000000    0.7419930000000000 Cl
   0.3409100000000000    0.0674210000000000    0.2580070000000000 Cl
   0.1905850000000000    0.9170970000000001    0.2580070000000000 Cl
   0.6590900000000000    0.9325790000000000    0.7419930000000000 Cl
   0.3156240000000000    0.3378380000000000    0.5000000000000000 Cl
   0.9325790000000000    0.1905850000000000    0.2734890000000000 Cl
   0.0829030000000000    0.3409100000000000    0.2734890000000000 Cl
   0.9234220000000000    0.4234220000000000    0.5000000000000000 Cl
   0.3378380000000000    0.8378380000000000    0.0222140000000000 Cl
   0.8094150000000000    0.0829030000000000    0.7419930000000000 Cl
   0.3094150000000000    0.5674210000000000    0.7265110000000000 Cl
   0.0674210000000000    0.8094150000000000    0.7265110000000000 Cl
   0.1590900000000000    0.4170970000000000    0.7265110000000000 Cl
   0.6843760000000000    0.6621620000000000    0.5000000000000000 Cl
   0.9230840000000000    0.5940050000000000    0.9127650000000000 O
   0.4409920000000000    0.0631430000000000    0.8695860000000000 O
   0.0638570000000000    0.6832090000000000    0.3762290000000000 O
   0.0714050000000000    0.6935570000000000    0.1304140000000000 O
   0.4896820000000000    0.8187600000000000    0.9127650000000000 O
   0.6832090000000000    0.3069800000000000    0.6193520000000000 O
   0.3379820000000000    0.1759250000000000    0.9130549999999999 O
   0.4059950000000000    0.3187600000000000    0.3290790000000000 O
   0.5750740000000000    0.6620180000000000    0.8379430000000000 O
   0.1759250000000000    0.2628690000000000    0.8379430000000000 O
   0.3123720000000000    0.9361429999999999    0.6193520000000000 O
   0.4052920000000000    0.6255820000000000    0.5000000000000000 O
   0.8064430000000000    0.4285950000000000    0.8695860000000000 O
   0.0631430000000000    0.1935570000000000    0.6221520000000000 O
   0.5590079999999999    0.9368570000000001    0.1304140000000000 O
   0.9059950000000000    0.5769160000000000    0.0872350000000000 O
   0.2628690000000000    0.4249260000000000    0.0869450000000000 O
   0.1876280000000000    0.8069800000000000    0.6237710000000000 O
   0.2371310000000000    0.3240750000000000    0.1620570000000000 O
   0.6255820000000000    0.1255820000000000    0.2202900000000000 O
   0.6620180000000000    0.8240750000000000    0.0869450000000000 O
   0.5940050000000000    0.6812400000000000    0.6709210000000000 O
   0.0750740000000000    0.2371310000000000    0.9130549999999999 O
   0.4361430000000000    0.8123720000000000    0.6193520000000000 O
   0.7371310000000000    0.5750740000000000    0.9130549999999999 O
   0.5103180000000000    0.1812400000000000    0.0872350000000000 O
   0.3167910000000000    0.6930200000000000    0.3806480000000000 O
   0.8744180000000000    0.0947080000000000    0.5000000000000000 O
   0.8379820000000000    0.9249260000000000    0.1620570000000000 O
   0.0769160000000000    0.4059950000000000    0.0872350000000000 O
   0.5769160000000000    0.4896820000000000    0.6709210000000000 O
   0.6935570000000000    0.5631429999999999    0.6221520000000000 O
   0.5947080000000000    0.3744180000000000    0.5000000000000000 O
   0.9285949999999999    0.3064430000000000    0.8695860000000000 O
   0.0940050000000000    0.4230840000000000    0.9127650000000000 O
   0.3064430000000000    0.4368570000000000    0.3778480000000000 O
   0.6930200000000000    0.3123720000000000    0.3762290000000000 O
   0.4249260000000000    0.3379820000000000    0.1620570000000000 O
   0.9361429999999999    0.3167910000000000    0.6237710000000000 O
   0.6759250000000000    0.8379820000000000    0.9130549999999999 O
   0.0947080000000000    0.5947080000000000    0.2202900000000000 O
   0.4368570000000000    0.0590080000000000    0.1304140000000000 O
   0.1935570000000000    0.5714050000000001    0.1304140000000000 O
   0.9052920000000000    0.4052920000000000    0.7797100000000000 O
   0.3187600000000000    0.9896820000000000    0.9127650000000000 O
   0.6812400000000000    0.0103180000000000    0.0872350000000000 O
   0.8187600000000000    0.9059950000000000    0.3290790000000000 O
   0.9368570000000001    0.8064430000000000    0.3778480000000000 O
   0.7628690000000000    0.6759250000000000    0.8379430000000000 O
   0.6876280000000000    0.0638570000000000    0.3806480000000000 O
   0.8167910000000000    0.4361430000000000    0.6237710000000000 O
   0.3240750000000000    0.1620180000000000    0.0869450000000000 O
   0.5638570000000001    0.1876280000000000    0.3806480000000000 O
   0.3069800000000000    0.6876280000000000    0.6237710000000000 O
   0.1832090000000000    0.5638570000000001    0.3762290000000000 O
   0.9409920000000001    0.0714050000000000    0.3778480000000000 O
   0.5631429999999999    0.9409920000000001    0.8695860000000000 O
   0.5714050000000001    0.4409920000000000    0.3778480000000000 O
   0.8240750000000000    0.7371310000000000    0.1620570000000000 O
   0.1255820000000000    0.9052920000000000    0.5000000000000000 O
   0.8123720000000000    0.1930200000000000    0.3762290000000000 O
   0.1930200000000000    0.8167910000000000    0.3806480000000000 O
   0.8069800000000000    0.1832090000000000    0.6193520000000000 O
   0.3744180000000000    0.8744180000000000    0.7797100000000000 O
   0.0103180000000000    0.9230840000000000    0.3290790000000000 O
   0.4285950000000000    0.5590079999999999    0.6221520000000000 O
   0.1812400000000000    0.0940050000000000    0.6709210000000000 O
   0.0590080000000000    0.9285949999999999    0.6221520000000000 O
   0.9896820000000000    0.0769160000000000    0.6709210000000000 O
   0.9249260000000000    0.7628690000000000    0.0869450000000000 O
   0.1620180000000000    0.0750740000000000    0.8379430000000000 O
   0.4230840000000000    0.5103180000000000    0.3290790000000000 O
