Li2 Ho6 Ge4 O16 F4
1.0
   2.5553249999999998    8.8599660000000000    0.0000000000000000
  -2.5553249999999998    8.8599660000000000    0.0000000000000000
   0.0000000000000000    7.6066750000000001    8.8758389999999991
Li Ho Ge O F
2 6 4 16 4
direct
   0.5000000000000000    0.0000000000000000    0.5000000000000000 Li
   0.0000000000000000    0.5000000000000000    0.0000000000000000 Li
   0.0836580000000000    0.6719790000000000    0.1511650000000000 Ho
   0.3280210000000000    0.9163420000000000    0.3488350000000000 Ho
   0.9163420000000000    0.3280210000000000    0.8488350000000000 Ho
   0.7897590000000000    0.2102410000000000    0.2500000000000000 Ho
   0.2102410000000000    0.7897590000000000    0.7500000000000000 Ho
   0.6719790000000000    0.0836580000000000    0.6511650000000000 Ho
   0.6195980000000000    0.0911700000000000    0.9894260000000000 Ge
   0.9088300000000000    0.3804020000000000    0.5105740000000000 Ge
   0.0911700000000000    0.6195980000000000    0.4894260000000000 Ge
   0.3804020000000000    0.9088300000000000    0.0105740000000000 Ge
   0.1317180000000000    0.3238270000000000    0.3292090000000000 O
   0.8682820000000000    0.6761730000000000    0.6707910000000000 O
   0.9137980000000000    0.7759910000000000    0.3659670000000000 O
   0.8930950000000000    0.0416500000000000    0.9283970000000000 O
   0.1069050000000000    0.9583500000000000    0.0716030000000000 O
   0.9583500000000000    0.1069050000000000    0.5716030000000000 O
   0.2892090000000000    0.4475330000000000    0.9760720000000001 O
   0.7107910000000000    0.5524670000000000    0.0239280000000000 O
   0.5524670000000000    0.7107910000000000    0.5239279999999999 O
   0.4475330000000000    0.2892090000000000    0.4760720000000000 O
   0.0862020000000000    0.2240090000000000    0.6340330000000000 O
   0.7759910000000000    0.9137980000000000    0.8659670000000000 O
   0.3238270000000000    0.1317180000000000    0.8292090000000000 O
   0.2240090000000000    0.0862020000000000    0.1340330000000000 O
   0.6761730000000000    0.8682820000000000    0.1707910000000000 O
   0.0416500000000000    0.8930950000000000    0.4283970000000000 O
   0.5174240000000000    0.3401880000000000    0.1711630000000000 F
   0.3401880000000000    0.5174240000000000    0.6711630000000000 F
   0.6598120000000000    0.4825760000000000    0.3288370000000000 F
   0.4825760000000000    0.6598120000000000    0.8288370000000000 F
