Li12 Nd8 H24 N36 O120
1.0
  13.4783299999999997    0.0000000000000000    0.0000000000000000
   0.0000000000000000   13.4783299999999997    0.0000000000000000
   0.0000000000000000    0.0000000000000000   13.4783299999999997
Li Nd H N O
12 8 24 36 120
direct
   0.2012870000000000    0.9494629999999999    0.7775540000000000 Li
   0.2224460000000000    0.7012870000000000    0.5505370000000001 Li
   0.4494630000000000    0.7224460000000000    0.7987130000000000 Li
   0.7012870000000000    0.5505370000000001    0.2224460000000000 Li
   0.7224460000000000    0.7987130000000000    0.4494630000000000 Li
   0.9494629999999999    0.7775540000000000    0.2012870000000000 Li
   0.7987130000000000    0.4494630000000000    0.7224460000000000 Li
   0.7775540000000000    0.2012870000000000    0.9494629999999999 Li
   0.5505370000000001    0.2224460000000000    0.7012870000000000 Li
   0.2987130000000000    0.0505370000000000    0.2775540000000000 Li
   0.2775540000000000    0.2987130000000000    0.0505370000000000 Li
   0.0505370000000000    0.2775540000000000    0.2987130000000000 Li
   0.0342330000000000    0.5342330000000000    0.9657670000000000 Nd
   0.5342330000000000    0.9657670000000000    0.0342330000000000 Nd
   0.9657670000000000    0.0342330000000000    0.5342330000000000 Nd
   0.4657670000000000    0.4657670000000000    0.4657670000000000 Nd
   0.7785540000000000    0.7785540000000000    0.7785540000000000 Nd
   0.2214460000000000    0.2785540000000000    0.7214460000000000 Nd
   0.2785540000000000    0.7214460000000000    0.2214460000000000 Nd
   0.7214460000000000    0.2214460000000000    0.2785540000000000 Nd
   0.8630250000000000    0.4870810000000000    0.5330750000000000 H
   0.4669250000000000    0.3630250000000000    0.0129190000000000 H
   0.9870810000000000    0.9669250000000000    0.1369750000000000 H
   0.3630250000000000    0.0129190000000000    0.4669250000000000 H
   0.9669250000000000    0.1369750000000000    0.9870810000000000 H
   0.4870810000000000    0.5330750000000000    0.8630250000000000 H
   0.1369750000000000    0.9870810000000000    0.9669250000000000 H
   0.5330750000000000    0.8630250000000000    0.4870810000000000 H
   0.0129190000000000    0.4669250000000000    0.3630250000000000 H
   0.6369750000000000    0.5129190000000000    0.0330750000000000 H
   0.0330750000000000    0.6369750000000000    0.5129190000000000 H
   0.5129190000000000    0.0330750000000000    0.6369750000000000 H
   0.0573540000000000    0.9490810000000000    0.8916750000000000 H
   0.1083250000000000    0.5573540000000000    0.5509190000000000 H
   0.4490810000000000    0.6083250000000000    0.9426460000000000 H
   0.5573540000000000    0.5509190000000000    0.1083250000000000 H
   0.6083250000000000    0.9426460000000000    0.4490810000000000 H
   0.9490810000000000    0.8916750000000000    0.0573540000000000 H
   0.9426460000000000    0.4490810000000000    0.6083250000000000 H
   0.8916750000000000    0.0573540000000000    0.9490810000000000 H
   0.5509190000000000    0.1083250000000000    0.5573540000000000 H
   0.4426460000000000    0.0509190000000000    0.3916750000000000 H
   0.3916750000000000    0.4426460000000000    0.0509190000000000 H
   0.0509190000000000    0.3916750000000000    0.4426460000000000 H
   0.2361240000000000    0.6264400000000000    0.0129190000000000 N
   0.9870810000000000    0.7361240000000000    0.8735600000000000 N
   0.1264400000000000    0.4870810000000000    0.7638760000000000 N
   0.7361240000000000    0.8735600000000000    0.9870810000000000 N
   0.4870810000000000    0.7638760000000000    0.1264400000000000 N
   0.6264400000000000    0.0129190000000000    0.2361240000000000 N
   0.7638760000000000    0.1264400000000000    0.4870810000000000 N
   0.0129190000000000    0.2361240000000000    0.6264400000000000 N
   0.8735600000000000    0.9870810000000000    0.7361240000000000 N
   0.2638760000000000    0.3735600000000000    0.5129190000000000 N
   0.5129190000000000    0.2638760000000000    0.3735600000000000 N
   0.3735600000000000    0.5129190000000000    0.2638760000000000 N
   0.3893040000000000    0.6046430000000000    0.6268470000000000 N
   0.3731530000000000    0.8893040000000000    0.8953570000000000 N
   0.1046430000000000    0.8731530000000000    0.6106960000000000 N
   0.8893040000000000    0.8953570000000000    0.3731530000000000 N
   0.8731530000000000    0.6106960000000000    0.1046430000000000 N
   0.6046430000000000    0.6268470000000000    0.3893040000000000 N
   0.6106960000000000    0.1046430000000000    0.8731530000000000 N
   0.6268470000000000    0.3893040000000000    0.6046430000000000 N
   0.8953570000000000    0.3731530000000000    0.8893040000000000 N
   0.1106960000000000    0.3953570000000000    0.1268470000000000 N
   0.1268470000000000    0.1106960000000000    0.3953570000000000 N
   0.3953570000000000    0.1268470000000000    0.1106960000000000 N
   0.7098820000000000    0.5815709999999999    0.8517140000000000 N
   0.1482860000000000    0.2098820000000000    0.9184290000000001 N
   0.0815710000000000    0.6482860000000000    0.2901180000000000 N
   0.2098820000000000    0.9184290000000001    0.1482860000000000 N
   0.6482860000000000    0.2901180000000000    0.0815710000000000 N
   0.5815709999999999    0.8517140000000000    0.7098820000000000 N
   0.2901180000000000    0.0815710000000000    0.6482860000000000 N
   0.8517140000000000    0.7098820000000000    0.5815709999999999 N
   0.9184290000000001    0.1482860000000000    0.2098820000000000 N
   0.7901180000000000    0.4184290000000000    0.3517140000000000 N
   0.3517140000000000    0.7901180000000000    0.4184290000000000 N
   0.4184290000000000    0.3517140000000000    0.7901180000000000 N
   0.8726090000000000    0.9211100000000000    0.6670030000000000 O
   0.3329970000000000    0.3726090000000000    0.5788900000000000 O
   0.4211100000000000    0.8329970000000000    0.1273910000000000 O
   0.3726090000000000    0.5788900000000000    0.3329970000000000 O
   0.8329970000000000    0.1273910000000000    0.4211100000000000 O
   0.9211100000000000    0.6670030000000000    0.8726090000000000 O
   0.1273910000000000    0.4211100000000000    0.8329970000000000 O
   0.6670030000000000    0.8726090000000000    0.9211100000000000 O
   0.5788900000000000    0.3329970000000000    0.3726090000000000 O
   0.6273910000000000    0.0788900000000000    0.1670030000000000 O
   0.1670030000000000    0.6273910000000000    0.0788900000000000 O
   0.0788900000000000    0.1670030000000000    0.6273910000000000 O
   0.2205470000000000    0.5831910000000000    0.9321270000000000 O
   0.0678730000000000    0.7205470000000000    0.9168090000000000 O
   0.0831910000000000    0.5678730000000000    0.7794530000000000 O
   0.7205470000000000    0.9168090000000000    0.0678730000000000 O
   0.5678730000000000    0.7794530000000000    0.0831910000000000 O
   0.5831910000000000    0.9321270000000000    0.2205470000000000 O
   0.7794530000000000    0.0831910000000000    0.5678730000000000 O
   0.9321270000000000    0.2205470000000000    0.5831910000000000 O
   0.9168090000000000    0.0678730000000000    0.7205470000000000 O
   0.2794530000000000    0.4168090000000000    0.4321270000000000 O
   0.4321270000000000    0.2794530000000000    0.4168090000000000 O
   0.4168090000000000    0.4321270000000000    0.2794530000000000 O
   0.8315270000000000    0.9673940000000000    0.8172790000000000 O
   0.1827210000000000    0.3315270000000000    0.5326060000000000 O
   0.4673940000000000    0.6827210000000000    0.1684730000000000 O
   0.3315270000000000    0.5326060000000000    0.1827210000000000 O
   0.6827210000000000    0.1684730000000000    0.4673940000000000 O
   0.9673940000000000    0.8172790000000000    0.8315270000000000 O
   0.1684730000000000    0.4673940000000000    0.6827210000000000 O
   0.8172790000000000    0.8315270000000000    0.9673940000000000 O
   0.5326060000000000    0.1827210000000000    0.3315270000000000 O
   0.6684730000000000    0.0326060000000000    0.3172790000000000 O
   0.3172790000000000    0.6684730000000000    0.0326060000000000 O
   0.0326060000000000    0.3172790000000000    0.6684730000000000 O
   0.3404790000000000    0.5925200000000000    0.5453040000000000 O
   0.4546960000000000    0.8404790000000000    0.9074800000000000 O
   0.0925200000000000    0.9546960000000000    0.6595210000000000 O
   0.8404790000000000    0.9074800000000000    0.4546960000000000 O
   0.9546960000000000    0.6595210000000000    0.0925200000000000 O
   0.5925200000000000    0.5453040000000000    0.3404790000000000 O
   0.6595210000000000    0.0925200000000000    0.9546960000000000 O
   0.5453040000000000    0.3404790000000000    0.5925200000000000 O
   0.9074800000000000    0.4546960000000000    0.8404790000000000 O
   0.1595210000000000    0.4074800000000000    0.0453040000000000 O
   0.0453040000000000    0.1595210000000000    0.4074800000000000 O
   0.4074800000000000    0.0453040000000000    0.1595210000000000 O
   0.0509670000000000    0.8597790000000000    0.5348240000000000 O
   0.4651760000000000    0.5509670000000000    0.6402210000000000 O
   0.3597790000000000    0.9651760000000000    0.9490330000000000 O
   0.5509670000000000    0.6402210000000000    0.4651760000000000 O
   0.9651760000000000    0.9490330000000000    0.3597790000000000 O
   0.8597790000000000    0.5348240000000000    0.0509670000000000 O
   0.9490330000000000    0.3597790000000000    0.9651760000000000 O
   0.5348240000000000    0.0509670000000000    0.8597790000000000 O
   0.6402210000000000    0.4651760000000000    0.5509670000000000 O
   0.4490330000000000    0.1402210000000000    0.0348240000000000 O
   0.0348240000000000    0.4490330000000000    0.1402210000000000 O
   0.1402210000000000    0.0348240000000000    0.4490330000000000 O
   0.3603570000000000    0.6681460000000000    0.6878720000000000 O
   0.3121280000000000    0.8603570000000000    0.8318540000000000 O
   0.1681460000000000    0.8121280000000000    0.6396430000000000 O
   0.8603570000000000    0.8318540000000000    0.3121280000000000 O
   0.8121280000000000    0.6396430000000000    0.1681460000000000 O
   0.6681460000000000    0.6878720000000000    0.3603570000000000 O
   0.6396430000000000    0.1681460000000000    0.8121280000000000 O
   0.6878720000000000    0.3603570000000000    0.6681460000000000 O
   0.8318540000000000    0.3121280000000000    0.8603570000000000 O
   0.1396430000000000    0.3318540000000000    0.1878720000000000 O
   0.1878720000000000    0.1396430000000000    0.3318540000000000 O
   0.3318540000000000    0.1878720000000000    0.1396430000000000 O
   0.7043800000000000    0.6615799999999999    0.9016760000000000 O
   0.0983240000000000    0.2043800000000000    0.8384200000000001 O
   0.1615800000000000    0.5983240000000000    0.2956200000000000 O
   0.2043800000000000    0.8384200000000001    0.0983240000000000 O
   0.5983240000000000    0.2956200000000000    0.1615800000000000 O
   0.6615799999999999    0.9016760000000000    0.7043800000000000 O
   0.2956200000000000    0.1615800000000000    0.5983240000000000 O
   0.9016760000000000    0.7043800000000000    0.6615799999999999 O
   0.8384200000000001    0.0983240000000000    0.2043800000000000 O
   0.7956200000000000    0.3384200000000000    0.4016760000000000 O
   0.4016760000000000    0.7956200000000000    0.3384200000000000 O
   0.3384200000000000    0.4016760000000000    0.7956200000000000 O
   0.7459860000000000    0.5890500000000000    0.7626930000000000 O
   0.2373070000000000    0.2459860000000000    0.9109500000000000 O
   0.0890500000000000    0.7373070000000000    0.2540140000000000 O
   0.2459860000000000    0.9109500000000000    0.2373070000000000 O
   0.7373070000000000    0.2540140000000000    0.0890500000000000 O
   0.5890500000000000    0.7626930000000000    0.7459860000000000 O
   0.2540140000000000    0.0890500000000000    0.7373070000000000 O
   0.7626930000000000    0.7459860000000000    0.5890500000000000 O
   0.9109500000000000    0.2373070000000000    0.2459860000000000 O
   0.7540140000000000    0.4109500000000000    0.2626930000000000 O
   0.2626930000000000    0.7540140000000000    0.4109500000000000 O
   0.4109500000000000    0.2626930000000000    0.7540140000000000 O
   0.5002910000000000    0.8851780000000000    0.6835980000000000 O
   0.3164020000000000    0.0002910000000000    0.6148220000000000 O
   0.3851780000000000    0.8164020000000000    0.4997090000000000 O
   0.0002910000000000    0.6148220000000000    0.3164020000000000 O
   0.8164020000000000    0.4997090000000000    0.3851780000000000 O
   0.8851780000000000    0.6835980000000000    0.5002910000000000 O
   0.4997090000000000    0.3851780000000000    0.8164020000000000 O
   0.6835980000000000    0.5002910000000000    0.8851780000000000 O
   0.6148220000000000    0.3164020000000000    0.0002910000000000 O
   0.9997090000000000    0.1148220000000000    0.1835980000000000 O
   0.1835980000000000    0.9997090000000000    0.1148220000000000 O
   0.1148220000000000    0.1835980000000000    0.9997090000000000 O
   0.1040370000000000    0.6211740000000000    0.5170180000000000 O
   0.4829820000000000    0.6040370000000000    0.8788260000000000 O
   0.1211740000000000    0.9829820000000000    0.8959630000000000 O
   0.6040370000000000    0.8788260000000000    0.4829820000000000 O
   0.9829820000000000    0.8959630000000000    0.1211740000000000 O
   0.6211740000000000    0.5170180000000000    0.1040370000000000 O
   0.8959630000000000    0.1211740000000000    0.9829820000000000 O
   0.5170180000000000    0.1040370000000000    0.6211740000000000 O
   0.8788260000000000    0.4829820000000000    0.6040370000000000 O
   0.3959630000000000    0.3788260000000000    0.0170180000000000 O
   0.0170180000000000    0.3959630000000000    0.3788260000000000 O
   0.3788260000000000    0.0170180000000000    0.3959630000000000 O
