Li2 Te2 H2 O8
1.0
   6.1297639999999998    0.0000000000000000    0.0000000000000000
   0.0000000000000000    4.9968110000000001    0.0000000000000000
   0.0000000000000000    0.9664410000000000    5.0155909999999997
Li Te H O
2 2 2 8
direct
   0.2497050000000000    0.6108020000000000    0.6137610000000000 Li
   0.7502950000000000    0.6108020000000000    0.6137610000000000 Li
   0.5000000000000000    0.9933800000000000    0.0065360000000000 Te
   0.0000000000000000    0.9948070000000000    0.0014510000000000 Te
   0.0000000000000000    0.0612370000000000    0.4510110000000000 H
   0.5000000000000000    0.0405620000000000    0.4652830000000000 H
   0.0000000000000000    0.2031190000000000    0.2806650000000000 O
   0.5000000000000000    0.1877170000000000    0.2964000000000000 O
   0.2522210000000000    0.2287970000000000    0.8353190000000000 O
   0.7477790000000000    0.2287970000000000    0.8353190000000000 O
   0.7520110000000000    0.7660880000000000    0.1831570000000000 O
   0.2479890000000000    0.7660880000000000    0.1831570000000000 O
   0.0000000000000000    0.8124090000000000    0.7114549999999999 O
   0.5000000000000000    0.8037980000000000    0.7209210000000000 O
