pymatgen with grid density = 1263 / number of atoms
0
Gamma
7 6 3
