Li2 Sn12 P14 O48
1.0
  27.5951969999999989    0.0000000000000000    0.0000000000000000
   0.0000000000000000    6.2705890000000002    0.0000000000000000
   0.0000000000000000    2.8403710000000002    6.7814740000000002
Li Sn P O
2 12 14 48
direct
   0.7500000000000000    0.9050370000000000    0.4877190000000000 Li
   0.2500000000000000    0.0949630000000000    0.5122810000000000 Li
   0.4546750000000000    0.8285580000000000    0.6922440000000000 Sn
   0.8192830000000000    0.1592150000000000    0.7208410000000000 Sn
   0.3192830000000000    0.8407850000000000    0.2791590000000000 Sn
   0.0453250000000000    0.8285580000000000    0.6922440000000000 Sn
   0.6807170000000000    0.1592150000000000    0.7208410000000000 Sn
   0.0986590000000000    0.2232090000000000    0.9077380000000000 Sn
   0.5986590000000001    0.7767910000000000    0.0922620000000000 Sn
   0.9546750000000001    0.1714420000000000    0.3077560000000000 Sn
   0.9013409999999999    0.7767910000000000    0.0922620000000000 Sn
   0.4013410000000000    0.2232090000000000    0.9077380000000000 Sn
   0.1807170000000000    0.8407850000000000    0.2791590000000000 Sn
   0.5453249999999999    0.1714420000000000    0.3077560000000000 Sn
   0.3946970000000000    0.3288310000000000    0.3833940000000000 P
   0.0275520000000000    0.7064730000000000    0.1961240000000000 P
   0.3289590000000000    0.7660930000000000    0.8183530000000000 P
   0.1053030000000000    0.3288310000000000    0.3833940000000000 P
   0.1710410000000000    0.7660930000000000    0.8183530000000000 P
   0.6053030000000000    0.6711690000000000    0.6166060000000000 P
   0.7500000000000000    0.5209680000000000    0.9162840000000000 P
   0.2500000000000000    0.4790320000000000    0.0837160000000000 P
   0.8289590000000000    0.2339070000000000    0.1816470000000000 P
   0.8946970000000000    0.6711690000000000    0.6166060000000000 P
   0.5275520000000000    0.2935270000000000    0.8038760000000000 P
   0.6710410000000000    0.2339070000000000    0.1816470000000000 P
   0.9724480000000000    0.2935270000000000    0.8038760000000000 P
   0.4724480000000000    0.7064730000000000    0.1961240000000000 P
   0.1654330000000000    0.8957740000000000    0.9580260000000000 O
   0.4720910000000000    0.8261330000000000    0.3396290000000000 O
   0.0911140000000000    0.1697810000000000    0.5983870000000000 O
   0.0228680000000000    0.3731010000000000    0.8473530000000000 O
   0.3581300000000000    0.5109970000000000    0.3863130000000000 O
   0.5550770000000000    0.5414800000000000    0.7136680000000000 O
   0.3345670000000000    0.8957740000000000    0.9580260000000000 O
   0.4771320000000000    0.3731010000000000    0.8473530000000000 O
   0.3768750000000000    0.6597620000000000    0.7835569999999999 O
   0.3026050000000000    0.9051830000000000    0.6302390000000000 O
   0.6193959999999999    0.8113850000000000    0.7376160000000000 O
   0.7500000000000000    0.7755250000000000    0.7879290000000000 O
   0.6231250000000000    0.3402380000000000    0.2164430000000000 O
   0.8026050000000000    0.0948170000000000    0.3697610000000000 O
   0.9460340000000000    0.1460350000000000    0.9993720000000000 O
   0.5911140000000000    0.8302190000000000    0.4016130000000000 O
   0.7960780000000000    0.4681210000000000    0.0597290000000000 O
   0.9771320000000000    0.6268990000000000    0.1526470000000000 O
   0.1973950000000000    0.9051830000000000    0.6302390000000000 O
   0.6654330000000001    0.1042260000000000    0.0419740000000000 O
   0.2039220000000000    0.5318790000000000    0.9402710000000000 O
   0.7500000000000000    0.3594360000000000    0.8037690000000000 O
   0.5539660000000000    0.1460350000000000    0.9993720000000000 O
   0.5279090000000000    0.1738670000000000    0.6603710000000000 O
   0.8345669999999999    0.1042260000000000    0.0419740000000000 O
   0.8806040000000001    0.8113850000000000    0.7376160000000000 O
   0.0550770000000000    0.4585200000000000    0.2863320000000000 O
   0.7039220000000000    0.4681210000000000    0.0597290000000000 O
   0.5228680000000000    0.6268990000000000    0.1526470000000000 O
   0.0279090000000000    0.8261330000000000    0.3396290000000000 O
   0.4460340000000000    0.8539650000000000    0.0006280000000000 O
   0.3806040000000000    0.1886150000000000    0.2623840000000000 O
   0.2500000000000000    0.6405640000000000    0.1962310000000000 O
   0.4449230000000000    0.4585200000000000    0.2863320000000000 O
   0.6973950000000000    0.0948170000000000    0.3697610000000000 O
   0.4088860000000000    0.1697810000000000    0.5983870000000000 O
   0.9449230000000000    0.5414800000000000    0.7136680000000000 O
   0.8768750000000000    0.3402380000000000    0.2164430000000000 O
   0.9720910000000000    0.1738670000000000    0.6603710000000000 O
   0.1193960000000000    0.1886150000000000    0.2623840000000000 O
   0.6418700000000001    0.4890030000000000    0.6136870000000000 O
   0.8581299999999999    0.4890030000000000    0.6136870000000000 O
   0.2960780000000000    0.5318790000000000    0.9402710000000000 O
   0.2500000000000000    0.2244750000000000    0.2120710000000000 O
   0.9088860000000000    0.8302190000000000    0.4016130000000000 O
   0.0539660000000000    0.8539650000000000    0.0006280000000000 O
   0.1418700000000000    0.5109970000000000    0.3863130000000000 O
   0.1231250000000000    0.6597620000000000    0.7835569999999999 O
