pymatgen with grid density = 1241 / number of atoms
0
Gamma
3 3 4
