Li18 Si12 Bi6 O42
1.0
   4.5279309999999997   -7.8426070000000001    0.0000000000000000
   4.5279309999999997    7.8426070000000001    0.0000000000000000
   0.0000000000000000    0.0000000000000000   13.8647410000000004
Li Si Bi O
18 12 6 42
direct
   0.3134810000000000    0.9857180000000000    0.0879920000000000 Li
   0.3130440000000000    0.9843430000000000    0.4132860000000000 Li
   0.0142820000000000    0.3277630000000000    0.0879920000000000 Li
   0.0156570000000000    0.3287000000000000    0.4132860000000000 Li
   0.0000000000000000    0.0000000000000000    0.4995970000000000 Li
   0.0000000000000000    0.0000000000000000    0.9995970000000000 Li
   0.3333330000000000    0.6666670000000000    0.2517200000000000 Li
   0.3333330000000000    0.6666670000000000    0.7622270000000000 Li
   0.3277630000000000    0.3134810000000000    0.5879920000000000 Li
   0.3287000000000000    0.3130440000000000    0.9132860000000000 Li
   0.6722370000000000    0.6865190000000000    0.0879920000000000 Li
   0.6713000000000000    0.6869560000000000    0.4132860000000000 Li
   0.6666670000000000    0.3333330000000000    0.2622270000000000 Li
   0.6666670000000000    0.3333330000000000    0.7517200000000001 Li
   0.9843430000000000    0.6713000000000000    0.9132860000000000 Li
   0.9857180000000000    0.6722370000000000    0.5879920000000000 Li
   0.6865190000000000    0.0142820000000000    0.5879920000000000 Li
   0.6869560000000000    0.0156570000000000    0.9132860000000000 Li
   0.3256250000000000    0.9803840000000000    0.8590960000000000 Si
   0.3253380000000000    0.9799920000000000    0.6411740000000000 Si
   0.0200080000000000    0.3453450000000000    0.6411740000000000 Si
   0.0196160000000000    0.3452410000000000    0.8590960000000000 Si
   0.3452410000000000    0.3256250000000000    0.3590960000000000 Si
   0.3453450000000000    0.3253380000000000    0.1411740000000000 Si
   0.6546550000000000    0.6746620000000000    0.6411740000000000 Si
   0.6547590000000000    0.6743749999999999    0.8590960000000000 Si
   0.9803840000000000    0.6547590000000000    0.3590960000000000 Si
   0.9799920000000000    0.6546550000000000    0.1411740000000000 Si
   0.6743749999999999    0.0196160000000000    0.3590960000000000 Si
   0.6746620000000000    0.0200080000000000    0.1411740000000000 Si
   0.3333330000000000    0.6666670000000000    0.0220840000000000 Bi
   0.0000000000000000    0.0000000000000000    0.2501650000000000 Bi
   0.0000000000000000    0.0000000000000000    0.7501650000000000 Bi
   0.3333330000000000    0.6666670000000000    0.4805830000000000 Bi
   0.6666670000000000    0.3333330000000000    0.5220840000000000 Bi
   0.6666670000000000    0.3333330000000000    0.9805830000000000 Bi
   0.0874620000000000    0.8630420000000000    0.1363410000000000 O
   0.0864770000000000    0.8631510000000000    0.3646910000000000 O
   0.0999500000000000    0.5672450000000000    0.1289530000000000 O
   0.1016180000000000    0.5688890000000000    0.3716220000000000 O
   0.2337680000000000    0.8257320000000000    0.5618410000000000 O
   0.2347180000000000    0.8227500000000000    0.9364530000000000 O
   0.2925790000000000    0.8812330000000000    0.7501480000000000 O
   0.1187670000000000    0.4113460000000000    0.7501480000000000 O
   0.1742680000000000    0.4080360000000000    0.5618410000000000 O
   0.1772500000000000    0.4119680000000000    0.9364530000000000 O
   0.4672950000000000    0.9000500000000000    0.1289530000000000 O
   0.4672710000000000    0.8983820000000000    0.3716220000000000 O
   0.1369580000000000    0.2244200000000000    0.1363410000000000 O
   0.1368490000000000    0.2233260000000000    0.3646910000000000 O
   0.4327550000000000    0.5327050000000000    0.1289530000000000 O
   0.4311110000000000    0.5327290000000000    0.3716220000000000 O
   0.2233260000000000    0.0864770000000000    0.8646910000000000 O
   0.2244200000000000    0.0874620000000000    0.6363410000000000 O
   0.5919640000000000    0.7662320000000000    0.5618410000000000 O
   0.5880320000000000    0.7652820000000000    0.9364530000000000 O
   0.5886540000000000    0.7074210000000000    0.7501480000000000 O
   0.4113460000000000    0.2925790000000000    0.2501480000000000 O
   0.4080360000000000    0.2337680000000000    0.0618410000000000 O
   0.4119680000000000    0.2347180000000000    0.4364530000000000 O
   0.7755800000000000    0.9125380000000000    0.1363410000000000 O
   0.7766740000000000    0.9135230000000000    0.3646910000000000 O
   0.5672450000000000    0.4672950000000000    0.6289530000000000 O
   0.5688890000000000    0.4672710000000000    0.8716220000000000 O
   0.8630420000000000    0.7755800000000000    0.6363410000000000 O
   0.8631510000000000    0.7766740000000000    0.8646910000000000 O
   0.5327290000000000    0.1016180000000000    0.8716220000000000 O
   0.5327050000000000    0.0999500000000000    0.6289530000000000 O
   0.8227500000000000    0.5880320000000000    0.4364530000000000 O
   0.8257320000000000    0.5919640000000000    0.0618410000000000 O
   0.8812330000000000    0.5886540000000000    0.2501480000000000 O
   0.7074210000000000    0.1187670000000000    0.2501480000000000 O
   0.7652820000000000    0.1772500000000000    0.4364530000000000 O
   0.7662320000000000    0.1742680000000000    0.0618410000000000 O
   0.9000500000000000    0.4327550000000000    0.6289530000000000 O
   0.8983820000000000    0.4311110000000000    0.8716220000000000 O
   0.9125380000000000    0.1369580000000000    0.6363410000000000 O
   0.9135230000000000    0.1368490000000000    0.8646910000000000 O
