Li8 Pr4 N20 O60
1.0
   8.9399695599999998    0.0000000000000000    0.0000000000000000
  -0.0000000000000000   10.4593237400000003    0.0000000000000000
   0.0000000000000000    0.0000000000000000   11.6405392200000009
Li Pr N O
8 4 20 60
direct
   0.6189880600000000    0.7726295300000000    0.8195934800000000 Li
   0.3810119400000000    0.2273704700000000    0.1804065200000000 Li
   0.1189880600000000    0.7273704700000000    0.3195934800000000 Li
   0.3810119400000000    0.2273704700000000    0.8195934800000000 Li
   0.1189880600000000    0.7273704700000000    0.6804065200000000 Li
   0.8810119400000000    0.2726295300000000    0.3195934800000000 Li
   0.8810119400000000    0.2726295300000000    0.6804065200000000 Li
   0.6189880600000000    0.7726295300000000    0.1804065200000000 Li
   0.0000000000000000    0.5000000000000000   -0.0000000000000000 Pr
   0.0000000000000000   -0.0000000000000000   -0.0000000000000000 Pr
   0.5000000000000000    0.5000000000000000    0.5000000000000000 Pr
   0.5000000000000000   -0.0000000000000000    0.5000000000000000 Pr
   0.6007006000000000    0.3430078200000000    0.7094402900000000 N
   0.3992994000000000    0.6569921800000000    0.2905597100000000 N
   0.8992994000000000    0.8430078200000000    0.2094402900000000 N
   0.5000000000000000   -0.0000000000000000    0.7617391400000000 N
   0.6736472700000000    0.7510822600000000    0.5000000000000000 N
   0.1736472700000000    0.7489177400000000   -0.0000000000000000 N
   0.1007006000000000    0.1569921800000000    0.7905597100000000 N
   0.0000000000000000    0.5000000000000000    0.7382608600000000 N
   0.7079195600000000    0.6495088500000000   -0.0000000000000000 N
   0.0000000000000000    0.5000000000000000    0.2617391400000000 N
   0.2079195600000000    0.8504911500000000    0.5000000000000000 N
   0.5000000000000000   -0.0000000000000000    0.2382608600000000 N
   0.2920804400000000    0.3504911500000000   -0.0000000000000000 N
   0.1007006000000000    0.1569921800000000    0.2094402900000000 N
   0.8263527300000000    0.2510822600000000   -0.0000000000000000 N
   0.7920804400000000    0.1495088500000000    0.5000000000000000 N
   0.3992994000000000    0.6569921800000000    0.7094402900000000 N
   0.6007006000000000    0.3430078200000000    0.2905597100000000 N
   0.8992994000000000    0.8430078200000000    0.7905597100000000 N
   0.3263527300000000    0.2489177400000000    0.5000000000000000 N
   0.4633658000000000    0.3724792100000000    0.7021585600000000 O
   0.9633658000000000    0.1275207900000000    0.2021585600000000 O
   0.9413568600000000    0.4092124800000000    0.2032279100000000 O
   0.0980303000000000    0.7769054600000000    0.5000000000000000 O
   0.8104578200000000    0.8857878900000000    0.8677026799999999 O
   0.9413568600000000    0.4092124800000000    0.7967720900000000 O
   0.8527207999999999    0.7728075000000000    0.2866350300000000 O
   0.5000000000000000   -0.0000000000000000    0.8665691900000000 O
   0.2340563600000000    0.3869669100000000    0.0935494800000000 O
   0.7340563600000000    0.1130330900000000    0.4064505200000000 O
   0.3527208000000000    0.7271925000000000    0.2133649700000000 O
   0.8527207999999999    0.7728075000000000    0.7133649700000000 O
   0.0366342000000000    0.8724792099999999    0.2021585600000000 O
   0.3527208000000000    0.7271925000000000    0.7866350300000000 O
   0.5366342000000000    0.6275207900000001    0.7021585600000000 O
   0.0586431400000000    0.5907875200000000    0.7967720900000000 O
   0.0000000000000000    0.5000000000000000    0.6334308100000000 O
   0.2340563600000000    0.3869669100000000    0.9064505200000000 O
   0.7659436400000000    0.6130330899999999    0.9064505200000000 O
   0.3104578200000000    0.6142121100000000    0.6322973200000001 O
   0.0366342000000000    0.8724792099999999    0.7978414400000000 O
   0.8104578200000000    0.8857878900000000    0.1322973200000000 O
   0.9633658000000000    0.1275207900000000    0.7978414400000000 O
   0.7659436400000000    0.6130330899999999    0.0935494800000000 O
   0.5586431400000000    0.9092124800000000    0.7032279100000000 O
   0.2659436400000000    0.8869669100000001    0.4064505200000000 O
   0.5286123600000000    0.7527178100000000    0.5000000000000000 O
   0.0000000000000000    0.5000000000000000    0.3665691900000000 O
   0.6895421800000000    0.3857878900000000    0.3677026800000000 O
   0.1472792000000000    0.2271925000000000    0.7133649700000000 O
   0.5366342000000000    0.6275207900000001    0.2978414400000000 O
   0.2602191400000000    0.1446602100000000    0.5000000000000000 O
   0.4413568600000000    0.0907875200000000    0.2967720900000000 O
   0.7602191400000000    0.3553397900000000   -0.0000000000000000 O
   0.1472792000000000    0.2271925000000000    0.2866350300000000 O
   0.5980303000000000    0.7230945400000000   -0.0000000000000000 O
   0.4713876400000000    0.2472821900000000    0.5000000000000000 O
   0.4413568600000000    0.0907875200000000    0.7032279100000000 O
   0.1895421800000000    0.1142121100000000    0.1322973200000000 O
   0.7372687000000000    0.6453031200000000    0.5000000000000000 O
   0.1895421800000000    0.1142121100000000    0.8677026799999999 O
   0.7627313000000000    0.1453031200000000   -0.0000000000000000 O
   0.6472792000000001    0.2728075000000000    0.2133649700000000 O
   0.0586431400000000    0.5907875200000000    0.2032279100000000 O
   0.7340563600000000    0.1130330900000000    0.5935494800000000 O
   0.4019697000000000    0.2769054600000000   -0.0000000000000000 O
   0.4633658000000000    0.3724792100000000    0.2978414400000000 O
   0.5586431400000000    0.9092124800000000    0.2967720900000000 O
   0.3104578200000000    0.6142121100000000    0.3677026800000000 O
   0.0286123600000000    0.7472821900000000   -0.0000000000000000 O
   0.5000000000000000   -0.0000000000000000    0.1334308100000000 O
   0.2397808600000000    0.6446602100000000   -0.0000000000000000 O
   0.9713876400000000    0.2527178100000000   -0.0000000000000000 O
   0.6472792000000001    0.2728075000000000    0.7866350300000000 O
   0.7397808600000000    0.8553397900000000    0.5000000000000000 O
   0.2659436400000000    0.8869669100000001    0.5935494800000000 O
   0.9019697000000000    0.2230945400000000    0.5000000000000000 O
   0.2372687000000000    0.8546968800000000   -0.0000000000000000 O
   0.6895421800000000    0.3857878900000000    0.6322973200000001 O
   0.2627313000000000    0.3546968800000000    0.5000000000000000 O
