pymatgen with grid density = 1372 / number of atoms
0
Monkhorst
2 2 2
