Li6 Ga6 Ge6 O24
1.0
   5.1587569999999996   -7.0808309999999999    0.0000000000000000
   5.1587569999999996    7.0808309999999999    0.0000000000000000
  -4.5602830000000001    0.0000000000000000    7.4802920000000004
Li Ga Ge O
6 6 6 24
direct
   0.9362350000000000    0.5353510000000000    0.7667530000000000 Li
   0.7667530000000000    0.9362350000000000    0.5353510000000000 Li
   0.5353510000000000    0.7667530000000000    0.9362350000000000 Li
   0.0637650000000000    0.4646490000000000    0.2332470000000000 Li
   0.2332470000000000    0.0637650000000000    0.4646490000000000 Li
   0.4646490000000000    0.2332470000000000    0.0637650000000000 Li
   0.6146090000000000    0.2083950000000000    0.4321630000000000 Ga
   0.2083950000000000    0.4321630000000000    0.6146090000000000 Ga
   0.3853910000000000    0.7916050000000000    0.5678370000000000 Ga
   0.5678370000000000    0.3853910000000000    0.7916050000000000 Ga
   0.7916050000000000    0.5678370000000000    0.3853910000000000 Ga
   0.4321630000000000    0.6146090000000000    0.2083950000000000 Ga
   0.1043890000000000    0.2750980000000000    0.8666270000000000 Ge
   0.8666270000000000    0.1043890000000000    0.2750980000000000 Ge
   0.7249020000000000    0.1333730000000000    0.8956110000000000 Ge
   0.8956110000000000    0.7249020000000000    0.1333730000000000 Ge
   0.1333730000000000    0.8956110000000000    0.7249020000000000 Ge
   0.2750980000000000    0.8666270000000000    0.1043890000000000 Ge
   0.3323990000000000    0.3010550000000000    0.6467349999999999 O
   0.9607420000000000    0.6781250000000000    0.6295160000000000 O
   0.6781250000000000    0.6295160000000000    0.9607420000000000 O
   0.6295160000000000    0.9607420000000000    0.6781250000000000 O
   0.0392580000000000    0.3218750000000000    0.3704840000000000 O
   0.3218750000000000    0.3704840000000000    0.0392580000000000 O
   0.3704840000000000    0.0392580000000000    0.3218750000000000 O
   0.6467349999999999    0.3323990000000000    0.3010550000000000 O
   0.9274510000000000    0.6043280000000000    0.2572460000000000 O
   0.3010550000000000    0.6467349999999999    0.3323990000000000 O
   0.3532650000000000    0.6676010000000000    0.6989450000000000 O
   0.6676010000000000    0.6989450000000000    0.3532650000000000 O
   0.0725490000000000    0.3956720000000000    0.7427540000000000 O
   0.7427540000000000    0.0725490000000000    0.3956720000000000 O
   0.3956720000000000    0.7427540000000000    0.0725490000000000 O
   0.0427510000000000    0.7232380000000000    0.0256020000000000 O
   0.2572460000000000    0.9274510000000000    0.6043280000000000 O
   0.6043280000000000    0.2572460000000000    0.9274510000000000 O
   0.2767620000000000    0.9743980000000000    0.9572490000000000 O
   0.0256020000000000    0.0427510000000000    0.7232380000000000 O
   0.7232380000000000    0.0256020000000000    0.0427510000000000 O
   0.9572490000000000    0.2767620000000000    0.9743980000000000 O
   0.9743980000000000    0.9572490000000000    0.2767620000000000 O
   0.6989450000000000    0.3532650000000000    0.6676010000000000 O
