Li6 Te2 H2 O8
1.0
   6.4173980000000004    0.0000000000000000    0.0000000000000000
   0.0000000000000000    5.5269500000000003    0.0000000000000000
   0.0000000000000000    2.7113719999999999    6.3077019999999999
Li Te H O
6 2 2 8
direct
   0.2500000000000000    0.7176810000000000    0.3508190000000000 Li
   0.7500000000000000    0.2823190000000000    0.6491810000000000 Li
   0.4848030000000000    0.2519060000000000    0.3482640000000000 Li
   0.9848030000000000    0.7480940000000000    0.6517360000000000 Li
   0.5151970000000000    0.7480940000000000    0.6517360000000000 Li
   0.0151970000000000    0.2519060000000000    0.3482640000000000 Li
   0.2500000000000000    0.1752950000000000    0.8143450000000000 Te
   0.7500000000000000    0.8247050000000000    0.1856550000000000 Te
   0.2500000000000000    0.5160810000000000    0.0619530000000000 H
   0.7500000000000000    0.4839190000000000    0.9380470000000000 H
   0.2500000000000000    0.5479960000000000    0.6779710000000000 O
   0.7500000000000000    0.4520040000000000    0.3220290000000000 O
   0.4751350000000000    0.0944080000000000    0.6721600000000000 O
   0.9751350000000000    0.9055920000000000    0.3278400000000000 O
   0.5248650000000000    0.9055920000000000    0.3278400000000000 O
   0.0248650000000000    0.0944080000000000    0.6721600000000000 O
   0.2500000000000000    0.4734600000000000    0.2138370000000000 O
   0.7500000000000000    0.5265400000000000    0.7861629999999999 O
