Li1 Ce2 H1 O3
1.0
  -1.7497529999999999    1.8750650000000000    6.2769860000000000
   1.7497529999999999   -1.8750650000000000    6.2769860000000000
   1.7497529999999999    1.8750650000000000   -6.2769860000000000
Li Ce H O
1 2 1 3
direct
   0.0000000000000000    0.0000000000000000    0.0000000000000000 Li
   0.3617850000000000    0.3617850000000000    0.0000000000000000 Ce
   0.6382150000000000    0.6382150000000000    0.0000000000000000 Ce
   0.0000000000000000    0.5000000000000000    0.5000000000000000 H
   0.5000000000000000    0.0000000000000000    0.5000000000000000 O
   0.8230620000000000    0.8230620000000000    0.0000000000000000 O
   0.1769380000000000    0.1769380000000000    0.0000000000000000 O
