Li8 B14 Cl2 O24
1.0
   7.4840520000000001   -4.3744399999999999    0.0000000000000000
   7.4840520000000001    4.3744399999999999    0.0000000000000000
   4.9271859999999998    0.0000000000000000    7.1322929999999998
Li B Cl O
8 14 2 24
direct
   0.4926960000000000    0.4928030000000000    0.0181970000000000 Li
   0.4928030000000000    0.0181970000000000    0.4926960000000000 Li
   0.0181970000000000    0.4926960000000000    0.4928030000000000 Li
   0.9926960000000000    0.5181970000000000    0.9928030000000000 Li
   0.5181970000000000    0.9928030000000000    0.9926960000000000 Li
   0.9928030000000000    0.9926960000000000    0.5181970000000000 Li
   0.6319190000000000    0.6319190000000000    0.6319190000000000 Li
   0.1319190000000000    0.1319190000000000    0.1319190000000000 Li
   0.4000760000000000    0.4000760000000000    0.4000760000000000 B
   0.3998980000000000    0.3966730000000000    0.8039340000000000 B
   0.8039340000000000    0.3998980000000000    0.3966730000000000 B
   0.3966730000000000    0.8039340000000000    0.3998980000000000 B
   0.3039340000000000    0.8966730000000001    0.8998980000000000 B
   0.8966730000000001    0.8998980000000000    0.3039340000000000 B
   0.9000760000000000    0.9000760000000000    0.9000760000000000 B
   0.8998980000000000    0.3039340000000000    0.8966730000000001 B
   0.2477090000000000    0.2522920000000000    0.7487660000000000 B
   0.2522920000000000    0.7487660000000000    0.2477090000000000 B
   0.7487660000000000    0.2477090000000000    0.2522920000000000 B
   0.7477090000000000    0.2487660000000000    0.7522920000000000 B
   0.2487660000000000    0.7522920000000000    0.7477090000000000 B
   0.7522920000000000    0.7477090000000000    0.2487660000000000 B
   0.2432100000000000    0.2432100000000000    0.2432100000000000 Cl
   0.7432100000000000    0.7432100000000000    0.7432100000000000 Cl
   0.5627860000000000    0.3871900000000000    0.2479230000000000 O
   0.3871900000000000    0.2479230000000000    0.5627860000000000 O
   0.2479230000000000    0.5627860000000000    0.3871900000000000 O
   0.3959180000000000    0.5631980000000000    0.7955800000000000 O
   0.2424020000000000    0.3876710000000000    0.8098910000000000 O
   0.5607180000000000    0.2437890000000000    0.8039620000000000 O
   0.8098910000000000    0.2424020000000000    0.3876710000000000 O
   0.8039620000000000    0.5607180000000000    0.2437890000000000 O
   0.7955800000000000    0.3959180000000000    0.5631980000000000 O
   0.2437890000000000    0.8039620000000000    0.5607180000000000 O
   0.5631980000000000    0.7955800000000000    0.3959180000000000 O
   0.3876710000000000    0.8098910000000000    0.2424020000000000 O
   0.3098910000000000    0.8876710000000000    0.7424020000000000 O
   0.3039620000000000    0.7437890000000000    0.0607180000000000 O
   0.2955800000000000    0.0631980000000000    0.8959180000000000 O
   0.7437890000000000    0.0607180000000000    0.3039620000000000 O
   0.0631980000000000    0.8959180000000000    0.2955800000000000 O
   0.8876710000000000    0.7424020000000000    0.3098910000000000 O
   0.0627860000000000    0.7479230000000000    0.8871900000000000 O
   0.8871900000000000    0.0627860000000000    0.7479230000000000 O
   0.7479230000000000    0.8871900000000000    0.0627860000000000 O
   0.8959180000000000    0.2955800000000000    0.0631980000000000 O
   0.7424020000000000    0.3098910000000000    0.8876710000000000 O
   0.0607180000000000    0.3039620000000000    0.7437890000000000 O
