Li1 Al4 Tl4 O12
1.0
   5.3111569999999997   -0.0086370000000000   -0.1081270000000000
  -0.0085610000000000    5.4304980000000000   -0.0384310000000000
  -0.1591550000000000   -0.0548940000000000    7.8795029999999997
Li Al Tl O
1 4 4 12
direct
   0.3539880000000000    0.3955680000000000    0.4293620000000000 Li
   0.0208470000000000    0.4996230000000000    0.0035540000000000 Al
   0.9564360000000000    0.4993370000000000    0.5267640000000000 Al
   0.5097760000000000    0.0153690000000000    0.9943780000000000 Al
   0.5000380000000000    0.9745580000000000    0.5080090000000000 Al
   0.0103570000000000    0.9642600000000000    0.7611860000000000 Tl
   0.4874940000000000    0.4615100000000000    0.7623850000000000 Tl
   0.5496220000000001    0.5738970000000000    0.2077220000000000 Tl
   0.9905990000000000    0.0433480000000000    0.2655610000000000 Tl
   0.1107180000000000    0.4613970000000000    0.2443360000000000 O
   0.1779570000000000    0.1894780000000000    0.5507780000000000 O
   0.2297710000000000    0.2250890000000000    0.9432680000000000 O
   0.3037170000000000    0.7215290000000000    0.9549580000000000 O
   0.2827520000000000    0.6884780000000000    0.5555940000000000 O
   0.4107440000000000    0.9779870000000001    0.2551930000000000 O
   0.5907100000000000    0.0250300000000000    0.7485960000000000 O
   0.7270200000000000    0.2924860000000000    0.0383610000000000 O
   0.6854340000000000    0.2914980000000000    0.4619490000000000 O
   0.8126510000000000    0.8069090000000000    0.0475260000000000 O
   0.7839240000000000    0.7819620000000000    0.4551490000000000 O
   0.9054430000000000    0.5356870000000000    0.7603730000000000 O
