ALGO = Fast
EDIFF = 0.002
ENCUT = 520
IBRION = 2
ISIF = 3
ISMEAR = -5
ISPIN = 2
LASPH = True
LMAXMIX = 6
LORBIT = 11
LREAL = Auto
LWAVE = False
MAGMOM = 2*-0.007 2*-0.006 4*-0.002 4*-0.026 4*-0.015 1*0.137 1*0.138 1*0.137 1*0.138 1*0.149 1*0.148 2*0.149 1*0.151 1*0.152 2*0.151 2*0.137 1*0.136 1*0.137 2*0.148 1*0.149 1*0.148 1*0.15 3*0.151
NELM = 100
NSW = 99
PREC = Accurate
SIGMA = 0.05
