Ba4 Li4 Tb4 Sb4 O24
1.0
   8.4427722799999998    0.0000000000000000    0.0000000000000000
   0.0000000000000000    8.4840517400000000    0.0000000000000000
   0.0000000000000000    0.0000000000000000    8.4973242100000004
Ba Li Tb Sb O
4 4 4 4 24
direct
   0.0000000000000000   -0.0000000000000000   -0.0000000000000000 Ba
   0.5000000000000000    0.5000000000000000    0.5000000000000000 Ba
   0.5000000000000000    0.5000000000000000   -0.0000000000000000 Ba
  -0.0000000000000000    0.0000000000000000    0.5000000000000000 Ba
  -0.0000000000000000    0.5000000000000000    0.5000000000000000 Li
   0.5000000000000000   -0.0000000000000000    0.5000000000000000 Li
   0.5000000000000000    0.0000000000000000   -0.0000000000000000 Li
  -0.0000000000000000    0.5000000000000000   -0.0000000000000000 Li
   0.2500000000000000    0.2500000000000000    0.2500000000000000 Tb
   0.7500000000000000    0.7500000000000000    0.2500000000000000 Tb
   0.7500000000000000    0.2500000000000000    0.7500000000000000 Tb
   0.2500000000000000    0.7500000000000000    0.7500000000000000 Tb
   0.7500000000000000    0.7500000000000000    0.7500000000000000 Sb
   0.2500000000000000    0.2500000000000000    0.7500000000000000 Sb
   0.2500000000000000    0.7500000000000000    0.2500000000000000 Sb
   0.7500000000000000    0.2500000000000000    0.2500000000000000 Sb
   0.9857741000000000    0.2337309000000000    0.2613355900000000 O
   0.0142259000000000    0.7662691000000000    0.2613355900000000 O
   0.0142259000000000    0.2337309000000000    0.7386644100000000 O
   0.9857741000000000    0.7662691000000000    0.7386644100000000 O
   0.2565543200000000    0.9857576300000001    0.2359073900000000 O
   0.2565543200000000    0.0142423700000000    0.7640926099999999 O
   0.7434456800000000    0.0142423700000000    0.2359073900000000 O
   0.7434456800000000    0.9857576300000001    0.7640926099999999 O
   0.2362451500000000    0.2640644000000000    0.9856283400000000 O
   0.7637548500000000    0.2640644000000000    0.0143716600000000 O
   0.2362451500000000    0.7359356000000000    0.0143716600000000 O
   0.7637548500000000    0.7359356000000000    0.9856283400000000 O
   0.5142259000000000    0.2662691000000000    0.2386644100000000 O
   0.4857741000000000    0.7337309000000000    0.2386644100000000 O
   0.4857741000000000    0.2662691000000000    0.7613355900000000 O
   0.5142259000000000    0.7337309000000000    0.7613355900000000 O
   0.2434456800000000    0.5142423699999999    0.2640926100000000 O
   0.2434456800000000    0.4857576300000000    0.7359073900000001 O
   0.7565543200000000    0.4857576300000000    0.2640926100000000 O
   0.7565543200000000    0.5142423699999999    0.7359073900000001 O
   0.2637548500000000    0.2359356000000000    0.5143716600000000 O
   0.7362451500000000    0.2359356000000000    0.4856283400000000 O
   0.2637548500000000    0.7640644000000000    0.4856283400000000 O
   0.7362451500000000    0.7640644000000000    0.5143716600000000 O
