pymatgen with grid density = 1665 / number of atoms
0
Gamma
3 1 3
