Li2 Sn2 P6 O18
1.0
   3.3116580000000000   -5.7359590000000003    0.0000000000000000
   3.3116580000000000    5.7359590000000003    0.0000000000000000
   0.0000000000000000    0.0000000000000000   10.0161669999999994
Li Sn P O
2 2 6 18
direct
   0.0000000000000000    0.0000000000000000    0.0000000000000000 Li
   0.0000000000000000    0.0000000000000000    0.5000000000000000 Li
   0.6666670000000000    0.3333330000000000    0.0000000000000000 Sn
   0.6666670000000000    0.3333330000000000    0.5000000000000000 Sn
   0.6055900000000000    0.9146470000000000    0.7500000000000000 P
   0.6055900000000000    0.6909419999999999    0.2500000000000000 P
   0.0853530000000000    0.3944100000000000    0.2500000000000000 P
   0.3090580000000000    0.3944100000000000    0.7500000000000000 P
   0.0853530000000000    0.6909419999999999    0.7500000000000000 P
   0.3090580000000000    0.9146470000000000    0.2500000000000000 P
   0.3528230000000000    0.4573290000000000    0.2500000000000000 O
   0.5426710000000000    0.6471770000000000    0.7500000000000000 O
   0.3528230000000000    0.8954940000000000    0.7500000000000000 O
   0.5426710000000000    0.8954940000000000    0.2500000000000000 O
   0.7242370000000000    0.0270990000000000    0.6204950000000000 O
   0.7242370000000000    0.0270990000000000    0.8795050000000000 O
   0.1045060000000000    0.6471770000000000    0.2500000000000000 O
   0.9729010000000000    0.2757630000000000    0.3795050000000000 O
   0.9729010000000000    0.2757630000000000    0.1204950000000000 O
   0.7242370000000000    0.6971380000000000    0.1204950000000000 O
   0.7242370000000000    0.6971380000000000    0.3795050000000000 O
   0.1045060000000000    0.4573290000000000    0.7500000000000000 O
   0.9729010000000000    0.6971380000000000    0.8795050000000000 O
   0.9729010000000000    0.6971380000000000    0.6204950000000000 O
   0.3028620000000000    0.2757630000000000    0.6204950000000000 O
   0.3028620000000000    0.2757630000000000    0.8795050000000000 O
   0.3028620000000000    0.0270990000000000    0.3795050000000000 O
   0.3028620000000000    0.0270990000000000    0.1204950000000000 O
