pymatgen with grid density = 1204 / number of atoms
0
Gamma
4 3 2
