pymatgen with grid density = 848 / number of atoms
0
Gamma
4 4 3
