pymatgen with grid density = 1301 / number of atoms
0
Gamma
4 3 5
