Li2 Sn2 P2 H2 O10
1.0
   5.9258119999999996   -0.1084850000000000    0.0930930000000000
  -2.4372449999999999    7.7574069999999997    0.2064240000000000
  -0.6679200000000000   -1.9820730000000000    4.7314390000000000
Li Sn P H O
2 2 2 2 10
direct
   0.3991160000000000    0.8240720000000000    0.7499080000000000 Li
   0.6008840000000000    0.1759280000000000    0.2500920000000000 Li
   0.0000000000000000    0.5000000000000000    0.0000000000000000 Sn
   0.0000000000000000    0.0000000000000000    0.0000000000000000 Sn
   0.3546290000000000    0.2202630000000000    0.6496750000000000 P
   0.6453710000000000    0.7797370000000000    0.3503250000000000 P
   0.0479110000000000    0.3002090000000000    0.3723230000000000 H
   0.9520890000000000    0.6997910000000001    0.6276770000000000 H
   0.0651480000000000    0.7606810000000001    0.8199130000000000 O
   0.2164850000000000    0.3529110000000000    0.6772700000000000 O
   0.3763370000000000    0.6913960000000000    0.3567290000000000 O
   0.2408720000000000    0.0496440000000000    0.3627330000000000 O
   0.3361070000000000    0.1359470000000000    0.8897350000000001 O
   0.6638930000000000    0.8640530000000000    0.1102650000000000 O
   0.7591280000000000    0.9503560000000000    0.6372670000000000 O
   0.6236630000000000    0.3086040000000000    0.6432710000000000 O
   0.7835150000000000    0.6470890000000000    0.3227300000000000 O
   0.9348520000000000    0.2393190000000000    0.1800870000000000 O
