Li2 Y6 Si4 O16 F4
1.0
   2.4724290000000000    8.9301569999999995    0.0000000000000000
  -2.4724290000000000    8.9301569999999995    0.0000000000000000
   0.0000000000000000    7.7307189999999997    8.8542450000000006
Li Y Si O F
2 6 4 16 4
direct
   0.0000000000000000    0.5000000000000000    0.0000000000000000 Li
   0.5000000000000000    0.0000000000000000    0.5000000000000000 Li
   0.7870509999999999    0.2129490000000000    0.2500000000000000 Y
   0.2129490000000000    0.7870509999999999    0.7500000000000000 Y
   0.6727959999999999    0.0795820000000000    0.0915340000000000 Y
   0.9204180000000000    0.3272040000000000    0.4084660000000000 Y
   0.3272040000000000    0.9204180000000000    0.9084660000000000 Y
   0.0795820000000000    0.6727959999999999    0.5915340000000000 Y
   0.0872540000000000    0.6331970000000000    0.2934660000000000 Si
   0.3668030000000000    0.9127459999999999    0.2065340000000000 Si
   0.9127459999999999    0.3668030000000000    0.7065340000000000 Si
   0.6331970000000000    0.0872540000000000    0.7934660000000000 Si
   0.4261370000000000    0.3112830000000000    0.2849430000000000 O
   0.6887170000000000    0.5738630000000000    0.2150570000000000 O
   0.5738630000000000    0.6887170000000000    0.7150570000000001 O
   0.3112830000000000    0.4261370000000000    0.7849429999999999 O
   0.0494440000000000    0.8792560000000000    0.1392570000000000 O
   0.1207440000000000    0.9505560000000000    0.3607430000000000 O
   0.9505560000000000    0.1207440000000000    0.8607430000000000 O
   0.8792560000000000    0.0494440000000000    0.6392570000000000 O
   0.8808100000000000    0.6710660000000001    0.2901910000000000 O
   0.3289340000000000    0.1191900000000000    0.2098090000000000 O
   0.1191900000000000    0.3289340000000000    0.7098090000000000 O
   0.6710660000000001    0.8808100000000000    0.7901910000000000 O
   0.9317640000000000    0.7708030000000000    0.4286020000000000 O
   0.2291970000000000    0.0682360000000000    0.0713980000000000 O
   0.0682360000000000    0.2291970000000000    0.5713980000000000 O
   0.7708030000000000    0.9317640000000000    0.9286020000000000 O
   0.5327440000000000    0.3156880000000000    0.4785850000000000 F
   0.6843120000000000    0.4672560000000000    0.0214150000000000 F
   0.4672560000000000    0.6843120000000000    0.5214150000000000 F
   0.3156880000000000    0.5327440000000000    0.9785850000000000 F
