Li12 Nd8 N36 O120
1.0
  13.2942694299999999    0.0000000000000000    0.0000000000000000
   0.0000000000000000   13.2942694299999999    0.0000000000000000
   0.0000000000000000   -0.0000000000000000   13.2942694299999999
Li Nd N O
12 8 36 120
direct
   0.2012200400000000    0.5490607199999999    0.4722783800000000 Li
   0.2987799600000000    0.4509392800000000    0.9722783800000000 Li
   0.7987799600000000    0.0490607200000000    0.0277216200000000 Li
   0.4722783800000000    0.2012200400000000    0.5490607199999999 Li
   0.7012200400000000    0.9509392800000001    0.5277216200000000 Li
   0.9722783800000000    0.2987799600000000    0.4509392800000000 Li
   0.0277216200000000    0.7987799600000000    0.0490607200000000 Li
   0.5277216200000000    0.7012200400000000    0.9509392800000001 Li
   0.5490607199999999    0.4722783800000000    0.2012200400000000 Li
   0.0490607200000000    0.0277216200000000    0.7987799600000000 Li
   0.9509392800000001    0.5277216200000000    0.7012200400000000 Li
   0.4509392800000000    0.9722783800000000    0.2987799600000000 Li
   0.2157887100000000    0.2157887100000000    0.2157887100000000 Nd
   0.2842112900000000    0.7842112900000000    0.7157887100000000 Nd
   0.7842112900000000    0.7157887100000000    0.2842112900000000 Nd
   0.7157887100000000    0.2842112900000000    0.7842112900000000 Nd
   0.5285339400000000    0.5285339400000000    0.5285339400000000 Nd
   0.9714660600000000    0.4714660600000000    0.0285339400000000 Nd
   0.4714660600000000    0.0285339400000000    0.9714660600000000 Nd
   0.0285339400000000    0.9714660600000000    0.4714660600000000 Nd
   0.1041919200000000    0.1722847200000000    0.5424549000000000 N
   0.3958080800000000    0.8277152800000001    0.0424549000000000 N
   0.8958080800000000    0.6722847199999999    0.9575451000000000 N
   0.5424549000000000    0.1041919200000000    0.1722847200000000 N
   0.6041919200000000    0.3277152800000000    0.4575451000000000 N
   0.0424549000000000    0.3958080800000000    0.8277152800000001 N
   0.9575451000000000    0.8958080800000000    0.6722847199999999 N
   0.4575451000000000    0.6041919200000000    0.3277152800000000 N
   0.1722847200000000    0.5424549000000000    0.1041919200000000 N
   0.6722847199999999    0.9575451000000000    0.8958080800000000 N
   0.3277152800000000    0.4575451000000000    0.6041919200000000 N
   0.8277152800000001    0.0424549000000000    0.3958080800000000 N
   0.0099069400000000    0.2593570800000000    0.1236964600000000 N
   0.4900930600000000    0.7406429200000000    0.6236964600000000 N
   0.9900930600000000    0.7593570800000000    0.3763035400000000 N
   0.1236964600000000    0.0099069400000000    0.2593570800000000 N
   0.5099069400000000    0.2406429200000000    0.8763035400000000 N
   0.6236964600000000    0.4900930600000000    0.7406429200000000 N
   0.3763035400000000    0.9900930600000000    0.7593570800000000 N
   0.8763035400000000    0.5099069400000000    0.2406429200000000 N
   0.2593570800000000    0.1236964600000000    0.0099069400000000 N
   0.7593570800000000    0.3763035400000000    0.9900930600000000 N
   0.2406429200000000    0.8763035400000000    0.5099069400000000 N
   0.7406429200000000    0.6236964600000000    0.4900930600000000 N
   0.1370335400000000    0.3795846900000000    0.3561214000000000 N
   0.3629664600000000    0.6204153100000001    0.8561214000000000 N
   0.8629664600000000    0.8795846899999999    0.1438786000000000 N
   0.3561214000000000    0.1370335400000000    0.3795846900000000 N
   0.6370335400000000    0.1204153100000000    0.6438786000000000 N
   0.8561214000000000    0.3629664600000000    0.6204153100000001 N
   0.1438786000000000    0.8629664600000000    0.8795846899999999 N
   0.6438786000000000    0.6370335400000000    0.1204153100000000 N
   0.3795846900000000    0.3561214000000000    0.1370335400000000 N
   0.8795846899999999    0.1438786000000000    0.8629664600000000 N
   0.1204153100000000    0.6438786000000000    0.6370335400000000 N
   0.6204153100000001    0.8561214000000000    0.3629664600000000 N
   0.0914655900000000    0.5541194200000000    0.1544913400000000 O
   0.4085344100000000    0.4458805800000000    0.6544913400000000 O
   0.9085344100000000    0.0541194200000000    0.3455086600000000 O
   0.1544913400000000    0.0914655900000000    0.5541194200000000 O
   0.5914655900000000    0.9458805800000000    0.8455086600000000 O
   0.6544913400000000    0.4085344100000000    0.4458805800000000 O
   0.3455086600000000    0.9085344100000000    0.0541194200000000 O
   0.8455086600000000    0.5914655900000000    0.9458805800000000 O
   0.5541194200000000    0.1544913400000000    0.0914655900000000 O
   0.0541194200000000    0.3455086600000000    0.9085344100000000 O
   0.9458805800000000    0.8455086600000000    0.5914655900000000 O
   0.4458805800000000    0.6544913400000000    0.4085344100000000 O
   0.1372574500000000    0.2564666200000000    0.5613501800000000 O
   0.3627425500000000    0.7435333800000000    0.0613501800000000 O
   0.8627425500000000    0.7564666200000000    0.9386498200000000 O
   0.5613501800000000    0.1372574500000000    0.2564666200000000 O
   0.6372574500000000    0.2435333800000000    0.4386498200000000 O
   0.0613501800000000    0.3627425500000000    0.7435333800000000 O
   0.9386498200000000    0.8627425500000000    0.7564666200000000 O
   0.4386498200000000    0.6372574500000000    0.2435333800000000 O
   0.2564666200000000    0.5613501800000000    0.1372574500000000 O
   0.7564666200000000    0.9386498200000000    0.8627425500000000 O
   0.2435333800000000    0.4386498200000000    0.6372574500000000 O
   0.7435333800000000    0.0613501800000000    0.3627425500000000 O
   0.0890665500000000    0.2959963200000000    0.3445328200000000 O
   0.4109334500000000    0.7040036800000000    0.8445328200000000 O
   0.9109334500000000    0.7959963200000000    0.1554671800000000 O
   0.3445328200000000    0.0890665500000000    0.2959963200000000 O
   0.5890665500000000    0.2040036800000000    0.6554671800000000 O
   0.8445328200000000    0.4109334500000000    0.7040036800000000 O
   0.1554671800000000    0.9109334500000000    0.7959963200000000 O
   0.6554671800000000    0.5890665500000000    0.2040036800000000 O
   0.2959963200000000    0.3445328200000000    0.0890665500000000 O
   0.7959963200000000    0.1554671800000000    0.9109334500000000 O
   0.2040036800000000    0.6554671800000000    0.5890665500000000 O
   0.7040036800000000    0.8445328200000000    0.4109334500000000 O
   0.0130348200000000    0.1609965200000000    0.5069664600000000 O
   0.4869651800000000    0.8390034800000000    0.0069664600000000 O
   0.9869651800000000    0.6609965200000000    0.9930335400000000 O
   0.5069664600000000    0.0130348200000000    0.1609965200000000 O
   0.5130348200000000    0.3390034800000000    0.4930335400000000 O
   0.0069664600000000    0.4869651800000000    0.8390034800000000 O
   0.9930335400000000    0.9869651800000000    0.6609965200000000 O
   0.4930335400000000    0.5130348200000000    0.3390034800000000 O
   0.1609965200000000    0.5069664600000000    0.0130348200000000 O
   0.6609965200000000    0.9930335400000000    0.9869651800000000 O
   0.3390034800000000    0.4930335400000000    0.5130348200000000 O
   0.8390034800000000    0.0069664600000000    0.4869651800000000 O
   0.2099330300000000    0.6429692500000000    0.3421729300000000 O
   0.2900669700000000    0.3570307500000000    0.8421729300000000 O
   0.7900669700000000    0.1429692500000000    0.1578270700000000 O
   0.3421729300000000    0.2099330300000000    0.6429692500000000 O
   0.7099330300000000    0.8570307500000000    0.6578270700000000 O
   0.8421729300000000    0.2900669700000000    0.3570307500000000 O
   0.1578270700000000    0.7900669700000000    0.1429692500000000 O
   0.6578270700000000    0.7099330300000000    0.8570307500000000 O
   0.6429692500000000    0.3421729300000000    0.2099330300000000 O
   0.1429692500000000    0.1578270700000000    0.7900669700000000 O
   0.8570307500000000    0.6578270700000000    0.7099330300000000 O
   0.3570307500000000    0.8421729300000000    0.2900669700000000 O
   0.0700039900000000    0.7763127000000000    0.4231635600000000 O
   0.4299960100000000    0.2236873000000000    0.9231635600000000 O
   0.9299960100000000    0.2763127000000000    0.0768364400000000 O
   0.4231635600000000    0.0700039900000000    0.7763127000000000 O
   0.5700039900000000    0.7236873000000000    0.5768364400000000 O
   0.9231635600000000    0.4299960100000000    0.2236873000000000 O
   0.0768364400000000    0.9299960100000000    0.2763127000000000 O
   0.5768364400000000    0.5700039900000000    0.7236873000000000 O
   0.7763127000000000    0.4231635600000000    0.0700039900000000 O
   0.2763127000000000    0.0768364400000000    0.9299960100000000 O
   0.7236873000000000    0.5768364400000000    0.5700039900000000 O
   0.2236873000000000    0.9231635600000000    0.4299960100000000 O
   0.0265950800000000    0.1788574400000000    0.1695541400000000 O
   0.4734049200000000    0.8211425600000000    0.6695541400000000 O
   0.9734049200000000    0.6788574400000000    0.3304458600000000 O
   0.1695541400000000    0.0265950800000000    0.1788574400000000 O
   0.5265950800000000    0.3211425600000000    0.8304458600000000 O
   0.6695541400000000    0.4734049200000000    0.8211425600000000 O
   0.3304458600000000    0.9734049200000000    0.6788574400000000 O
   0.8304458600000000    0.5265950800000000    0.3211425600000000 O
   0.1788574400000000    0.1695541400000000    0.0265950800000000 O
   0.6788574400000000    0.3304458600000000    0.9734049200000000 O
   0.3211425600000000    0.8304458600000000    0.5265950800000000 O
   0.8211425600000000    0.6695541400000000    0.4734049200000000 O
   0.2152015300000000    0.3929329500000000    0.3037547100000000 O
   0.2847984700000000    0.6070670500000001    0.8037547100000000 O
   0.7847984700000000    0.8929329499999999    0.1962452900000000 O
   0.3037547100000000    0.2152015300000000    0.3929329500000000 O
   0.7152015300000000    0.1070670500000000    0.6962452900000000 O
   0.8037547100000000    0.2847984700000000    0.6070670500000001 O
   0.1962452900000000    0.7847984700000000    0.8929329499999999 O
   0.6962452900000000    0.7152015300000000    0.1070670500000000 O
   0.3929329500000000    0.3037547100000000    0.2152015300000000 O
   0.8929329499999999    0.1962452900000000    0.7847984700000000 O
   0.1070670500000000    0.6962452900000000    0.7152015300000000 O
   0.6070670500000001    0.8037547100000000    0.2847984700000000 O
   0.0786873400000000    0.3283527800000000    0.1246773900000000 O
   0.4213126600000000    0.6716472200000000    0.6246773900000000 O
   0.9213126600000000    0.8283527800000000    0.3753226100000000 O
   0.1246773900000000    0.0786873400000000    0.3283527800000000 O
   0.5786873400000000    0.1716472200000000    0.8753226100000000 O
   0.6246773900000000    0.4213126600000000    0.6716472200000000 O
   0.3753226100000000    0.9213126600000000    0.8283527800000000 O
   0.8753226100000000    0.5786873400000000    0.1716472200000000 O
   0.3283527800000000    0.1246773900000000    0.0786873400000000 O
   0.8283527800000000    0.3753226100000000    0.9213126600000000 O
   0.1716472200000000    0.8753226100000000    0.5786873400000000 O
   0.6716472200000000    0.6246773900000000    0.4213126600000000 O
   0.1052496900000000    0.4426622300000000    0.4180254800000000 O
   0.3947503100000000    0.5573377700000000    0.9180254799999999 O
   0.8947503100000000    0.9426622300000000    0.0819745200000000 O
   0.4180254800000000    0.1052496900000000    0.4426622300000000 O
   0.6052496900000000    0.0573377700000000    0.5819745200000001 O
   0.9180254799999999    0.3947503100000000    0.5573377700000000 O
   0.0819745200000000    0.8947503100000000    0.9426622300000000 O
   0.5819745200000001    0.6052496900000000    0.0573377700000000 O
   0.4426622300000000    0.4180254800000000    0.1052496900000000 O
   0.9426622300000000    0.0819745200000000    0.8947503100000000 O
   0.0573377700000000    0.5819745200000001    0.6052496900000000 O
   0.5573377700000000    0.9180254799999999    0.3947503100000000 O
