pymatgen with grid density = 1485 / number of atoms
0
Gamma
1 4 2
