Li12 Bi8 B12 O36
1.0
  14.1490369999999999    0.0000000000000000    0.0000000000000000
   0.0000000000000000    5.8821630000000003    0.0000000000000000
   0.0000000000000000    3.6802730000000001    8.7321869999999997
Li Bi B O
12 8 12 36
direct
   0.6649969999999999    0.4194600000000000    0.5056740000000000 Li
   0.7148750000000000    0.5635460000000000    0.7156330000000000 Li
   0.2148750000000000    0.4364540000000000    0.7843670000000000 Li
   0.6116460000000000    0.9395200000000000    0.7051600000000000 Li
   0.1116460000000000    0.0604800000000000    0.7948400000000000 Li
   0.8350030000000001    0.4194600000000000    0.0056740000000000 Li
   0.1649970000000000    0.5805399999999999    0.9943260000000000 Li
   0.8883540000000000    0.9395200000000000    0.2051600000000000 Li
   0.3883540000000000    0.0604800000000000    0.2948400000000000 Li
   0.7851250000000000    0.5635460000000000    0.2156330000000000 Li
   0.2851250000000000    0.4364540000000000    0.2843670000000000 Li
   0.3350030000000000    0.5805399999999999    0.4943260000000000 Li
   0.9918030000000000    0.6503220000000000    0.6546240000000000 Bi
   0.3386410000000000    0.9500450000000000    0.6906300000000000 Bi
   0.4918030000000000    0.3496780000000000    0.8453760000000000 Bi
   0.8386410000000000    0.0499550000000000    0.8093700000000000 Bi
   0.1613590000000000    0.9500450000000000    0.1906300000000000 Bi
   0.5081970000000000    0.6503220000000000    0.1546240000000000 Bi
   0.6613590000000000    0.0499550000000000    0.3093700000000000 Bi
   0.0081970000000000    0.3496780000000000    0.3453760000000000 Bi
   0.1786070000000000    0.8887300000000000    0.5170169999999999 B
   0.5168840000000000    0.7338880000000000    0.5196560000000000 B
   0.1641260000000000    0.3873850000000000    0.5300770000000000 B
   0.0168840000000000    0.2661120000000000    0.9803440000000000 B
   0.6786070000000000    0.1112700000000000    0.9829830000000001 B
   0.3358740000000000    0.3873850000000000    0.0300770000000000 B
   0.6641260000000000    0.6126150000000000    0.9699230000000000 B
   0.3213930000000000    0.8887300000000000    0.0170170000000000 B
   0.9831160000000000    0.7338880000000000    0.0196560000000000 B
   0.8358740000000000    0.6126150000000000    0.4699230000000000 B
   0.4831160000000000    0.2661120000000000    0.4803440000000000 B
   0.8213930000000000    0.1112700000000000    0.4829830000000000 B
   0.6050470000000000    0.6843270000000000    0.5853530000000000 O
   0.4358410000000000    0.6585240000000000    0.6108490000000000 O
   0.1690560000000000    0.7972370000000000    0.6744910000000000 O
   0.0735380000000000    0.3388500000000000    0.5941670000000000 O
   0.8323140000000000    0.5126510000000000    0.6289240000000000 O
   0.7349410000000000    0.0935800000000000    0.5539590000000000 O
   0.9033540000000000    0.0439770000000000    0.5740020000000000 O
   0.2434700000000000    0.3300360000000000    0.6215750000000000 O
   0.4925390000000000    0.1397860000000000    0.6376170000000000 O
   0.3323140000000000    0.4873490000000000    0.8710760000000000 O
   0.6690560000000000    0.2027630000000000    0.8255090000000000 O
   0.9358410000000000    0.3414760000000000    0.8891510000000000 O
   0.1050470000000000    0.3156730000000000    0.9146470000000000 O
   0.9925389999999999    0.8602140000000000    0.8623830000000000 O
   0.7434700000000000    0.6699640000000000    0.8784250000000000 O
   0.4033540000000000    0.9560230000000000    0.9259980000000000 O
   0.2349410000000000    0.9064200000000000    0.9460410000000000 O
   0.5735380000000000    0.6611500000000000    0.9058330000000000 O
   0.4264620000000000    0.3388500000000000    0.0941670000000000 O
   0.7650590000000000    0.0935800000000000    0.0539590000000000 O
   0.5966460000000000    0.0439770000000000    0.0740020000000000 O
   0.2565300000000000    0.3300360000000000    0.1215750000000000 O
   0.0074610000000000    0.1397860000000000    0.1376170000000000 O
   0.8949530000000000    0.6843270000000000    0.0853530000000000 O
   0.0641590000000000    0.6585240000000000    0.1108490000000000 O
   0.3309440000000000    0.7972370000000000    0.1744910000000000 O
   0.6676860000000000    0.5126510000000000    0.1289240000000000 O
   0.5074610000000001    0.8602140000000000    0.3623830000000000 O
   0.7565300000000000    0.6699640000000000    0.3784250000000000 O
   0.0966460000000000    0.9560230000000000    0.4259980000000000 O
   0.2650590000000000    0.9064200000000000    0.4460410000000000 O
   0.1676860000000000    0.4873490000000000    0.3710760000000000 O
   0.9264620000000000    0.6611500000000000    0.4058330000000000 O
   0.8309440000000000    0.2027630000000000    0.3255090000000000 O
   0.5641590000000000    0.3414760000000000    0.3891510000000000 O
   0.3949530000000000    0.3156730000000000    0.4146470000000000 O
