ALGO = Fast
EDIFF = 0.0008
ENCUT = 520
IBRION = 2
ISIF = 3
ISMEAR = -5
ISPIN = 2
LASPH = True
LMAXMIX = 4
LORBIT = 11
LREAL = Auto
LWAVE = False
MAGMOM = 2*-0.001 1*-0.022 1*-0.001 2*-0.0 2*0.017 2*0.09 2*0.038 2*0.018 2*0.663
NELM = 100
NSW = 99
PREC = Accurate
SIGMA = 0.05
