Li2 Bi4 P6 O24
1.0
   4.6639450000000000    7.7985100000000003    0.0000000000000000
  -4.6639450000000000    7.7985100000000003    0.0000000000000000
   0.0000000000000000    4.9932290000000004    7.6638270000000004
Li Bi P O
2 4 6 24
direct
   0.1133980000000000    0.8866020000000000    0.2500000000000000 Li
   0.8866020000000000    0.1133980000000000    0.7500000000000000 Li
   0.6471250000000000    0.1478100000000000    0.1504800000000000 Bi
   0.3528750000000000    0.8521900000000000    0.8495200000000001 Bi
   0.1478100000000000    0.6471250000000000    0.6504799999999999 Bi
   0.8521900000000000    0.3528750000000000    0.3495200000000000 Bi
   0.7574280000000000    0.9577870000000001    0.5672970000000001 P
   0.5680380000000000    0.4319620000000000    0.7500000000000000 P
   0.2425720000000000    0.0422130000000000    0.4327030000000000 P
   0.4319620000000000    0.5680380000000000    0.2500000000000000 P
   0.9577870000000001    0.7574280000000000    0.0672970000000000 P
   0.0422130000000000    0.2425720000000000    0.9327029999999999 P
   0.8861180000000000    0.7662240000000000    0.6066710000000000 O
   0.7662240000000000    0.8861180000000000    0.1066710000000000 O
   0.0847460000000000    0.8123740000000000    0.0867530000000000 O
   0.7718410000000000    0.0164530000000000    0.3731230000000000 O
   0.5825669999999999    0.5379119999999999    0.3060350000000000 O
   0.4307390000000000    0.0330280000000000    0.3066280000000000 O
   0.9835469999999999    0.2281590000000000    0.1268770000000000 O
   0.9152540000000000    0.1876260000000000    0.9132470000000000 O
   0.7493910000000000    0.4132790000000000    0.6010390000000000 O
   0.5692610000000000    0.9669720000000001    0.6933720000000000 O
   0.4132790000000000    0.7493910000000000    0.1010390000000000 O
   0.2281590000000000    0.9835469999999999    0.6268770000000000 O
   0.4620880000000000    0.4174330000000000    0.1939650000000000 O
   0.4174330000000000    0.4620880000000000    0.6939650000000001 O
   0.5379119999999999    0.5825669999999999    0.8060349999999999 O
   0.1876260000000000    0.9152540000000000    0.4132470000000000 O
   0.1138820000000000    0.2337760000000000    0.3933290000000000 O
   0.0164530000000000    0.7718410000000000    0.8731230000000000 O
   0.0330280000000000    0.4307390000000000    0.8066280000000000 O
   0.9669720000000001    0.5692610000000000    0.1933720000000000 O
   0.2506090000000000    0.5867210000000000    0.3989610000000000 O
   0.2337760000000000    0.1138820000000000    0.8933290000000000 O
   0.5867210000000000    0.2506090000000000    0.8989610000000000 O
   0.8123740000000000    0.0847460000000000    0.5867530000000000 O
