Li1 Er1 Tl1 O2
1.0
   3.3723429999999999   -0.0007520000000000   -0.0156900000000000
  -1.7169660000000000    0.9912900000000000    9.4297900000000006
   1.6868230000000000   -2.9201589999999999   -0.0156900000000000
Li Er Tl O
1 1 1 2
direct
   0.0974640000000000    0.3025560000000000    0.0974640000000000 Li
   0.5142130000000000    0.5454960000000000    0.5142130000000000 Er
   0.9852400000000000    0.9485310000000000    0.9852400000000000 Tl
   0.2148590000000000    0.6430110000000000    0.2148590000000000 O
   0.7953670000000000    0.3937390000000000    0.7953670000000000 O
