ALGO = Fast
EDIFF = 0.004
ENCUT = 520
IBRION = 2
ISIF = 3
ISMEAR = -5
ISPIN = 2
LASPH = True
LMAXMIX = 6
LORBIT = 11
LREAL = Auto
LWAVE = False
MAGMOM = 2*0.0 1*0.001 1*0.002 1*0.001 2*0.0 2*0.001 1*0.002 2*-0.0 3*-0.001 1*-0.002 4*-0.001 1*-0.002 3*-0.001 2*-0.007 4*-0.003 2*-0.002 1*0.018 1*0.01 1*0.017 1*0.025 1*0.01 1*0.021 1*0.018 1*0.093 1*0.018 1*0.021 1*0.017 1*0.026 1*0.02 1*0.018 1*0.025 1*0.085 1*0.065 1*0.026 1*0.085 1*0.093 1*0.025 1*0.065 1*0.025 1*0.02 1*0.025 1*0.02 1*0.065 1*0.025 1*0.093 1*0.085 1*0.026 1*0.065 1*0.085 1*0.025 1*0.018 1*0.02 1*0.026 1*0.017 1*0.021 1*0.018 1*0.093 1*0.018 1*0.021 1*0.01 1*0.025 1*0.017 1*0.01 1*0.018
NELM = 100
NSW = 99
PREC = Accurate
SIGMA = 0.05
