Li12 Nd12 Sb2 Te6 O48
1.0
   6.3687120000000004    8.9902709999999999    0.0000000000000000
  -6.3687120000000004    8.9902709999999999    0.0000000000000000
   0.0000000000000000    8.9861570000000004    9.0208429999999993
Li Nd Sb Te O
12 12 2 6 48
direct
   0.8751730000000000    0.3743210000000000    0.8756880000000000 Li
   0.8748130000000000    0.1251870000000000    0.2500000000000000 Li
   0.7510060000000000    0.7503180000000000    0.3740930000000000 Li
   0.6245600000000000    0.3754400000000000    0.7500000000000000 Li
   0.7503180000000000    0.7510060000000000    0.8740930000000000 Li
   0.6256790000000000    0.1248270000000000    0.6243120000000000 Li
   0.3743210000000000    0.8751730000000000    0.3756880000000000 Li
   0.2489940000000000    0.2496820000000000    0.6259070000000000 Li
   0.2496820000000000    0.2489940000000000    0.1259070000000000 Li
   0.3754400000000000    0.6245600000000000    0.2500000000000000 Li
   0.1251870000000000    0.8748130000000000    0.7500000000000000 Li
   0.1248270000000000    0.6256790000000000    0.1243120000000000 Li
   0.8752130000000000    0.1247870000000000    0.7500000000000000 Nd
   0.7488520000000000    0.7496280000000000    0.6262040000000000 Nd
   0.8735090000000000    0.3754470000000000    0.3748150000000000 Nd
   0.3756750000000000    0.6243250000000000    0.7500000000000000 Nd
   0.7496280000000000    0.7488520000000000    0.1262040000000000 Nd
   0.6245530000000000    0.1264910000000000    0.1251850000000000 Nd
   0.3754470000000000    0.8735090000000000    0.8748150000000000 Nd
   0.2503720000000000    0.2511480000000000    0.8737960000000000 Nd
   0.6243250000000000    0.3756750000000000    0.2500000000000000 Nd
   0.1264910000000000    0.6245530000000000    0.6251850000000000 Nd
   0.2511480000000000    0.2503720000000000    0.3737960000000000 Nd
   0.1247870000000000    0.8752130000000000    0.2500000000000000 Nd
   0.5000000000000000    0.5000000000000000    0.5000000000000000 Sb
   0.5000000000000000    0.5000000000000000    0.0000000000000000 Sb
   0.0000000000000000    0.5000000000000000    0.0000000000000000 Te
   0.5000000000000000    0.0000000000000000    0.5000000000000000 Te
   0.5000000000000000    0.0000000000000000    0.0000000000000000 Te
   0.0000000000000000    0.5000000000000000    0.5000000000000000 Te
   0.0000000000000000    0.0000000000000000    0.5000000000000000 Te
   0.0000000000000000    0.0000000000000000    0.0000000000000000 Te
   0.9070920000000000    0.8069880000000000    0.6696150000000000 O
   0.9771290000000000    0.9234660000000000    0.9061740000000000 O
   0.8836670000000000    0.1698500000000000    0.9228680000000000 O
   0.9234030000000000    0.5228230000000000    0.6700970000000001 O
   0.9234660000000000    0.9771290000000000    0.4061740000000000 O
   0.9069800000000000    0.6933589999999999    0.4233740000000000 O
   0.8299870000000000    0.3829150000000000    0.5934600000000000 O
   0.5790550000000000    0.5281460000000000    0.7997630000000000 O
   0.6170850000000000    0.1700130000000000    0.9065400000000000 O
   0.6933589999999999    0.9069800000000000    0.9233740000000000 O
   0.8301500000000001    0.1163330000000000    0.5771320000000000 O
   0.6698960000000000    0.1158420000000000    0.3076940000000000 O
   0.9768060000000000    0.5764530000000000    0.1165930000000000 O
   0.8069880000000000    0.9070920000000000    0.1696150000000000 O
   0.5938710000000000    0.8074620000000000    0.5221920000000000 O
   0.7001080000000000    0.5940080000000000    0.3784450000000000 O
   0.6725000000000000    0.3786220000000000    0.0272260000000000 O
   0.8841580000000000    0.3301040000000000    0.1923060000000000 O
   0.5940080000000000    0.7001080000000000    0.8784450000000000 O
   0.4718540000000000    0.4209450000000000    0.7002370000000000 O
   0.4771770000000000    0.0765970000000000    0.8299029999999999 O
   0.6213780000000000    0.3275000000000000    0.4727740000000000 O
   0.8074620000000000    0.5938710000000000    0.0221920000000000 O
   0.4235470000000000    0.0231940000000000    0.3834070000000000 O
   0.1925380000000000    0.4061290000000000    0.9778080000000000 O
   0.5764530000000000    0.9768060000000000    0.6165929999999999 O
   0.3786220000000000    0.6725000000000000    0.5272260000000000 O
   0.5228230000000000    0.9234030000000000    0.1700970000000000 O
   0.5281460000000000    0.5790550000000000    0.2997630000000000 O
   0.4059920000000000    0.2998920000000000    0.1215550000000000 O
   0.1158420000000000    0.6698960000000000    0.8076940000000000 O
   0.3275000000000000    0.6213780000000000    0.9727740000000000 O
   0.2998920000000000    0.4059920000000000    0.6215550000000000 O
   0.4061290000000000    0.1925380000000000    0.4778080000000000 O
   0.1930120000000000    0.0929080000000000    0.8303850000000000 O
   0.0231940000000000    0.4235470000000000    0.8834070000000001 O
   0.3301040000000000    0.8841580000000000    0.6923060000000000 O
   0.1698500000000000    0.8836670000000000    0.4228680000000000 O
   0.3066410000000000    0.0930200000000000    0.0766260000000000 O
   0.3829150000000000    0.8299870000000000    0.0934600000000000 O
   0.4209450000000000    0.4718540000000000    0.2002370000000000 O
   0.1700130000000000    0.6170850000000000    0.4065400000000000 O
   0.0930200000000000    0.3066410000000000    0.5766260000000000 O
   0.0765340000000000    0.0228710000000000    0.5938260000000000 O
   0.0765970000000000    0.4771770000000000    0.3299030000000000 O
   0.1163330000000000    0.8301500000000001    0.0771320000000000 O
   0.0228710000000000    0.0765340000000000    0.0938260000000000 O
   0.0929080000000000    0.1930120000000000    0.3303850000000000 O
