pymatgen with grid density = 1193 / number of atoms
0
Gamma
4 4 5
