Li1 Bi1 P2 O7
1.0
   4.5637869999999996    3.4557340000000001    0.0000000000000000
  -4.5637869999999996    3.4557340000000001    0.0000000000000000
   0.0000000000000000    1.0208379999999999    4.6391309999999999
Li Bi P O
1 1 2 7
direct
   0.7032500000000000    0.2967500000000000    0.5000000000000000 Li
   0.0772180000000000    0.9227820000000000    0.5000000000000000 Bi
   0.6071130000000000    0.8050520000000000    0.0867290000000000 P
   0.1949480000000000    0.3928870000000000    0.9132710000000001 P
   0.7462940000000000    0.9722390000000000    0.7986090000000000 O
   0.4669250000000000    0.9442330000000000    0.2633290000000000 O
   0.7677270000000000    0.6850970000000000    0.2599710000000000 O
   0.3149030000000000    0.2322730000000000    0.7400290000000000 O
   0.0277610000000000    0.2537060000000000    0.2013910000000000 O
   0.4223610000000000    0.5776390000000000    0.0000000000000000 O
   0.0557670000000000    0.5330750000000000    0.7366710000000000 O
