Li6 Be2 P2 C2 O14
1.0
   6.8445850000000004    0.0000000000000000    0.0000000000000000
   0.0000000000000000    4.7896720000000004    0.0000000000000000
   0.0000000000000000    0.0187900000000000    8.1548540000000003
Li Be P C O
6 2 2 2 14
direct
   0.5192110000000000    0.9477550000000000    0.0203990000000000 Li
   0.2263110000000000    0.5769490000000000    0.8186230000000000 Li
   0.3929770000000000    0.5433130000000000    0.4606600000000000 Li
   0.8929770000000000    0.4566870000000000    0.5393400000000000 Li
   0.7263110000000000    0.4230510000000000    0.1813770000000000 Li
   0.0192110000000000    0.0522450000000000    0.9796010000000001 Li
   0.6887090000000000    0.9837320000000001    0.6990810000000000 Be
   0.1887090000000000    0.0162680000000000    0.3009190000000000 Be
   0.2583540000000000    0.0404410000000000    0.6537910000000000 P
   0.7583540000000000    0.9595590000000001    0.3462090000000000 P
   0.7334079999999999    0.4946340000000000    0.8507720000000000 C
   0.2334080000000000    0.5053660000000000    0.1492280000000000 C
   0.6894060000000000    0.6176670000000000    0.9858410000000000 O
   0.7583430000000000    0.2214500000000000    0.8494750000000000 O
   0.1021320000000000    0.9172640000000000    0.7671690000000000 O
   0.4567960000000000    0.9554340000000000    0.7369530000000000 O
   0.7573130000000000    0.6397670000000000    0.7184820000000000 O
   0.2371480000000000    0.3573650000000000    0.6316300000000000 O
   0.2544950000000000    0.9038960000000000    0.4785260000000000 O
   0.7544950000000000    0.0961040000000000    0.5214740000000000 O
   0.7371480000000000    0.6426350000000000    0.3683700000000000 O
   0.2573130000000000    0.3602330000000000    0.2815180000000000 O
   0.9567960000000000    0.0445660000000000    0.2630470000000000 O
   0.6021320000000000    0.0827360000000000    0.2328310000000000 O
   0.2583430000000000    0.7785500000000000    0.1505250000000000 O
   0.1894060000000000    0.3823330000000000    0.0141590000000000 O
