Li1 Bi1 B2 O5
1.0
   4.3307810000000000    3.0290940000000002    0.0000000000000000
  -4.3307810000000000    3.0290940000000002    0.0000000000000000
   0.0000000000000000    0.4508960000000000    3.8155980000000000
Li Bi B O
1 1 2 5
direct
   0.3987480000000000    0.6012520000000000    0.5000000000000000 Li
   0.0125870000000000    0.9874130000000000    0.0000000000000000 Bi
   0.8756710000000000    0.4895820000000000    0.6292980000000000 B
   0.5104180000000000    0.1243290000000000    0.3707020000000000 B
   0.7882180000000000    0.7000270000000000    0.5322340000000000 O
   0.4713680000000000    0.9289080000000000    0.1481090000000000 O
   0.7647960000000000    0.2352040000000000    0.5000000000000000 O
   0.0710920000000000    0.5286320000000000    0.8518910000000000 O
   0.2999730000000000    0.2117820000000000    0.4677660000000000 O
