Li1 Y3 P3 O12
1.0
   0.0000000000000000    0.0000000000000000   -6.3323470000000004
  -3.5062639999999998   -6.0193539999999999    0.0000000000000000
  -3.5062639999999998    6.0193539999999999    0.0000000000000000
Li Y P O
1 3 3 12
direct
   0.5000000000000000    0.0000000000000000    0.0000000000000000 Li
   0.3301950000000000    0.0000000000000000    0.5000000000000000 Y
   0.6698050000000000    0.5000000000000000    0.0000000000000000 Y
   0.0000000000000000    0.5000000000000000    0.5000000000000000 Y
   0.8328730000000000    0.0000000000000000    0.5000000000000000 P
   0.1671260000000000    0.5000000000000000    0.0000000000000000 P
   0.5000000000000000    0.5000000000000000    0.5000000000000000 P
   0.6815460000000000    0.8606470000000001    0.3046420000000000 O
   0.0155680000000000    0.4453020000000000    0.1415020000000000 O
   0.3490570000000000    0.6965750000000001    0.5586710000000000 O
   0.6815460000000000    0.1393530000000000    0.6953580000000000 O
   0.0155680000000000    0.5546980000000000    0.8584980000000000 O
   0.3490570000000000    0.3034250000000000    0.4413290000000000 O
   0.6509430000000000    0.5586710000000000    0.6965750000000001 O
   0.3184540000000000    0.3046420000000000    0.8606470000000001 O
   0.9844320000000000    0.1415020000000000    0.4453020000000000 O
   0.6509430000000000    0.4413290000000000    0.3034250000000000 O
   0.3184540000000000    0.6953580000000000    0.1393530000000000 O
   0.9844320000000000    0.8584980000000000    0.5546980000000000 O
