ALGO = Fast
EDIFF = 0.0011
ENCUT = 520
IBRION = 2
ISIF = 3
ISMEAR = -5
ISPIN = 2
LASPH = True
LORBIT = 11
LREAL = Auto
LWAVE = False
MAGMOM = 1*0.001 7*0.0 1*0.001 1*0.0 1*0.002 1*0.0 1*0.004 1*0.001 1*0.792 2*0.0 1*0.003 2*0.001 1*0.004 1*0.813
NELM = 100
NSW = 99
PREC = Accurate
SIGMA = 0.05
