Li10 B14 Cl2 O25
1.0
   0.0000000000000000    6.1178460000000001    6.1178460000000001
   6.1178460000000001    0.0000000000000000    6.1178460000000001
   6.1178460000000001    6.1178460000000001    0.0000000000000000
Li B Cl O
10 14 2 25
direct
   0.4051750000000000    0.8649420000000000    0.8649420000000000 Li
   0.8649420000000000    0.8649420000000000    0.4051750000000000 Li
   0.8649420000000000    0.4051750000000000    0.8649420000000000 Li
   0.8649420000000000    0.8649420000000000    0.8649420000000000 Li
   0.0433300000000000    0.4566700000000000    0.4566700000000000 Li
   0.4566700000000000    0.0433300000000000    0.4566700000000000 Li
   0.4566700000000000    0.4566700000000000    0.0433300000000000 Li
   0.0433300000000000    0.0433300000000000    0.4566700000000000 Li
   0.0433300000000000    0.4566700000000000    0.0433300000000000 Li
   0.4566700000000000    0.0433300000000000    0.0433300000000000 Li
   0.6008510000000000    0.6008510000000000    0.6008510000000000 B
   0.6008510000000000    0.1974460000000000    0.6008510000000000 B
   0.6008510000000000    0.6008510000000000    0.1974460000000000 B
   0.1974460000000000    0.6008510000000000    0.6008510000000000 B
   0.7571410000000000    0.0809530000000000    0.0809530000000000 B
   0.0809530000000000    0.0809530000000000    0.7571410000000000 B
   0.0809530000000000    0.7571410000000000    0.0809530000000000 B
   0.0809530000000000    0.0809530000000000    0.0809530000000000 B
   0.2505110000000000    0.7494890000000000    0.7494890000000000 B
   0.7494890000000000    0.2505110000000000    0.7494890000000000 B
   0.7494890000000000    0.7494890000000000    0.2505110000000000 B
   0.2505110000000000    0.2505110000000000    0.7494890000000000 B
   0.2505110000000000    0.7494890000000000    0.2505110000000000 B
   0.7494890000000000    0.2505110000000000    0.2505110000000000 B
   0.2500000000000000    0.2500000000000000    0.2500000000000000 Cl
   0.7500000000000000    0.7500000000000000    0.7500000000000000 Cl
   0.9363860000000001    0.2577000000000000    0.1022640000000000 O
   0.1022640000000000    0.9363860000000001    0.2577000000000000 O
   0.2577000000000000    0.1022640000000000    0.9363860000000001 O
   0.9363860000000001    0.7036490000000000    0.2577000000000000 O
   0.9363860000000001    0.1022640000000000    0.7036490000000000 O
   0.2577000000000000    0.7036490000000000    0.1022640000000000 O
   0.7036490000000000    0.9363860000000001    0.1022640000000000 O
   0.7036490000000000    0.2577000000000000    0.9363860000000001 O
   0.1022640000000000    0.2577000000000000    0.7036490000000000 O
   0.2577000000000000    0.9363860000000001    0.7036490000000000 O
   0.1022640000000000    0.7036490000000000    0.9363860000000001 O
   0.7036490000000000    0.1022640000000000    0.2577000000000000 O
   0.6070740000000000    0.7582900000000000    0.4388910000000000 O
   0.4388910000000000    0.6070740000000000    0.7582900000000000 O
   0.7582900000000000    0.4388910000000000    0.6070740000000000 O
   0.6070740000000000    0.1957450000000000    0.7582900000000000 O
   0.6070740000000000    0.4388910000000000    0.1957450000000000 O
   0.7582900000000000    0.1957450000000000    0.4388910000000000 O
   0.1957450000000000    0.6070740000000000    0.4388910000000000 O
   0.1957450000000000    0.7582900000000000    0.6070740000000000 O
   0.4388910000000000    0.7582900000000000    0.1957450000000000 O
   0.7582900000000000    0.6070740000000000    0.1957450000000000 O
   0.4388910000000000    0.1957450000000000    0.6070740000000000 O
   0.1957450000000000    0.4388910000000000    0.7582900000000000 O
   0.0000000000000000    0.0000000000000000    0.0000000000000000 O
