pymatgen with grid density = 1363 / number of atoms
0
Gamma
5 5 5
