K2 Li4 U1 O6
1.0
   3.0606000000000000   -5.3011140000000001    0.0000000000000000
   3.0606000000000000    5.3011140000000001    0.0000000000000000
   0.0000000000000000    0.0000000000000000    5.6736529999999998
K Li U O
2 4 1 6
direct
   0.3333330000000000    0.6666670000000000    0.5301900000000001 K
   0.6666670000000000    0.3333330000000000    0.4698100000000000 K
   0.0000000000000000    0.0000000000000000    0.5000000000000000 Li
   0.5000000000000000    0.0000000000000000    0.0000000000000000 Li
   0.5000000000000000    0.5000000000000000    0.0000000000000000 Li
   0.0000000000000000    0.5000000000000000    0.0000000000000000 Li
   0.0000000000000000    0.0000000000000000    0.0000000000000000 U
   0.6729370000000000    0.8364680000000000    0.2050940000000000 O
   0.3270630000000000    0.1635320000000000    0.7949060000000000 O
   0.8364680000000000    0.6729370000000000    0.7949060000000000 O
   0.1635320000000000    0.8364680000000000    0.2050940000000000 O
   0.8364680000000000    0.1635320000000000    0.7949060000000000 O
   0.1635320000000000    0.3270630000000000    0.2050940000000000 O
