Cs4 Li16 B20 O40
1.0
   9.4972200000000004    0.0000000000000000    0.0000000000000000
   0.0000000000000000    7.0200399999999998    0.0000000000000000
   0.0000000000000000    2.2815210000000001   16.1296810000000015
Cs Li B O
4 16 20 40
direct
   0.2024980000000000    0.5947580000000000    0.8680220000000000 Cs
   0.7024980000000000    0.4052420000000000    0.6319780000000000 Cs
   0.7975020000000000    0.4052420000000000    0.1319780000000000 Cs
   0.2975020000000000    0.5947580000000000    0.3680220000000000 Cs
   0.7225270000000000    0.9611630000000000    0.8198240000000000 Li
   0.2225270000000000    0.0388370000000000    0.6801760000000000 Li
   0.2774730000000000    0.0388370000000000    0.1801760000000000 Li
   0.7774730000000000    0.9611630000000000    0.3198240000000000 Li
   0.1445590000000000    0.0487910000000000    0.0316700000000000 Li
   0.6445590000000000    0.9512090000000000    0.4683300000000000 Li
   0.8554410000000000    0.9512090000000000    0.9683300000000000 Li
   0.3554410000000000    0.0487910000000000    0.5316700000000000 Li
   0.4198960000000000    0.0024120000000000    0.9273940000000001 Li
   0.9198960000000000    0.9975880000000000    0.5726059999999999 Li
   0.5801040000000000    0.9975880000000000    0.0726060000000000 Li
   0.0801040000000000    0.0024120000000000    0.4273940000000000 Li
   0.5925770000000000    0.7230529999999999    0.9438990000000000 Li
   0.0925770000000000    0.2769470000000000    0.5561010000000000 Li
   0.4074230000000000    0.2769470000000000    0.0561010000000000 Li
   0.9074230000000000    0.7230529999999999    0.4438990000000000 Li
   0.8011250000000000    0.5703880000000000    0.8946610000000000 B
   0.3011250000000000    0.4296120000000000    0.6053390000000000 B
   0.1988750000000000    0.4296120000000000    0.1053390000000000 B
   0.6988750000000000    0.5703880000000000    0.3946610000000000 B
   0.3741970000000000    0.7478490000000000    0.6441280000000000 B
   0.8741970000000000    0.2521510000000000    0.8558720000000000 B
   0.6258030000000000    0.2521510000000000    0.3558720000000000 B
   0.1258030000000000    0.7478490000000000    0.1441280000000000 B
   0.1145940000000000    0.0915610000000000    0.8737860000000000 B
   0.6145940000000000    0.9084390000000000    0.6262140000000000 B
   0.8854060000000000    0.9084390000000000    0.1262140000000000 B
   0.3854060000000000    0.0915610000000000    0.3737860000000000 B
   0.3556360000000000    0.7189170000000000    0.0652860000000000 B
   0.8556360000000000    0.2810830000000000    0.4347140000000000 B
   0.6443640000000000    0.2810830000000000    0.9347140000000000 B
   0.1443640000000000    0.7189170000000000    0.5652860000000000 B
   0.4991050000000000    0.8568580000000000    0.7654140000000000 B
   0.9991050000000000    0.1431420000000000    0.7345860000000000 B
   0.5008950000000000    0.1431420000000000    0.2345860000000000 B
   0.0008950000000000    0.8568580000000000    0.2654140000000000 B
   0.8142000000000000    0.7583610000000000    0.8994700000000000 O
   0.3142000000000000    0.2416390000000000    0.6005300000000000 O
   0.1858000000000000    0.2416390000000000    0.1005300000000000 O
   0.6858000000000000    0.7583610000000000    0.3994700000000000 O
   0.2211320000000000    0.0277060000000000    0.9229080000000000 O
   0.7211320000000000    0.9722940000000000    0.5770920000000000 O
   0.7788680000000000    0.9722940000000000    0.0770920000000000 O
   0.2788680000000000    0.0277060000000000    0.4229080000000000 O
   0.3755810000000000    0.8066000000000000    0.7279840000000000 O
   0.8755810000000001    0.1934000000000000    0.7720160000000000 O
   0.6244189999999999    0.1934000000000000    0.2720160000000000 O
   0.1244190000000000    0.8066000000000000    0.2279840000000000 O
   0.3163670000000000    0.5250629999999999    0.0612990000000000 O
   0.8163670000000000    0.4749370000000000    0.4387010000000000 O
   0.6836330000000000    0.4749370000000000    0.9387010000000000 O
   0.1836330000000000    0.5250629999999999    0.5612990000000000 O
   0.4737220000000000    0.7921360000000000    0.0297120000000000 O
   0.9737220000000000    0.2078640000000000    0.4702880000000000 O
   0.5262780000000000    0.2078640000000000    0.9702880000000000 O
   0.0262780000000000    0.7921360000000000    0.5297120000000000 O
   0.2606560000000000    0.8247600000000000    0.1065390000000000 O
   0.7606560000000000    0.1752400000000000    0.3934610000000000 O
   0.7393440000000000    0.1752400000000000    0.8934609999999999 O
   0.2393440000000000    0.8247600000000000    0.6065390000000001 O
   0.8874360000000000    0.4616680000000000    0.8512780000000000 O
   0.3874360000000000    0.5383320000000000    0.6487220000000000 O
   0.1125640000000000    0.5383320000000000    0.1487220000000000 O
   0.6125640000000000    0.4616680000000000    0.3512780000000000 O
   0.9896630000000000    0.1544500000000000    0.9078360000000000 O
   0.4896630000000000    0.8455500000000000    0.5921640000000000 O
   0.0103370000000000    0.8455500000000000    0.0921640000000000 O
   0.5103370000000000    0.1544500000000000    0.4078360000000000 O
   0.6198060000000000    0.9007490000000000    0.7137770000000000 O
   0.1198060000000000    0.0992510000000000    0.7862230000000000 O
   0.3801940000000000    0.0992510000000000    0.2862230000000000 O
   0.8801940000000000    0.9007490000000000    0.2137770000000000 O
   0.5134560000000000    0.8681870000000000    0.8459620000000000 O
   0.0134560000000000    0.1318130000000000    0.6540380000000000 O
   0.4865440000000000    0.1318130000000000    0.1540380000000000 O
   0.9865440000000000    0.8681870000000000    0.3459620000000000 O
