ALGO = Fast
EDIFF = 0.003
ENCUT = 520
IBRION = 2
ISIF = 3
ISMEAR = -5
ISPIN = 2
LASPH = True
LORBIT = 11
LREAL = Auto
LWAVE = False
MAGMOM = 1*-0.0 1*-0.001 2*-0.0 1*0.001 2*-0.002 1*0.001 1*-0.0 1*0.003 1*-0.0 1*0.003 3*-0.0 1*-0.016 2*0.0 1*-0.003 1*-0.016 1*-0.003 3*0.0 1*0.169 1*0.001 1*0.0 1*0.002 2*0.0 1*0.003 1*0.0 1*0.202 1*0.001 1*0.0 1*0.277 1*0.017 1*0.009 1*0.389 2*0.0 1*0.389 1*0.009 1*0.017 1*0.002 1*0.0 1*0.277 1*0.001 1*0.202 1*0.169 1*0.003 2*-0.0 2*0.001 1*0.002 3*0.001 1*0.002
NELM = 100
NSW = 99
PREC = Accurate
SIGMA = 0.05
