ALGO = Fast
EDIFF = 0.0018000000000000002
ENCUT = 520
IBRION = 2
ISIF = 3
ISMEAR = -5
ISPIN = 2
LASPH = True
LMAXMIX = 6
LORBIT = 11
LREAL = Auto
LWAVE = False
MAGMOM = 2*-0.0 2*6.07 2*0.001 2*0.002 1*0.001 2*0.002 1*0.001 2*-0.002 1*-0.014 1*-0.027 1*-0.008 2*-0.028 2*-0.006 1*-0.014 1*-0.002 1*-0.014 1*-0.01 1*-0.006 1*-0.01 1*-0.008 2*-0.01 1*-0.014 1*-0.008 1*-0.006 1*-0.002 1*-0.027 1*-0.008
NELM = 100
NSW = 99
PREC = Accurate
SIGMA = 0.05
