Li2 Eu2 P8 O24
1.0
   3.5944720000000001    8.3321199999999997    0.0000000000000000
  -3.5944720000000001    8.3321199999999997    0.0000000000000000
   0.0000000000000000    5.8576540000000001    7.9670940000000003
Li Eu P O
2 2 8 24
direct
   0.7976470000000000    0.2023530000000000    0.2500000000000000 Li
   0.2023530000000000    0.7976470000000000    0.7500000000000000 Li
   0.6995520000000000    0.3004480000000000    0.7500000000000000 Eu
   0.3004480000000000    0.6995520000000000    0.2500000000000000 Eu
   0.9168160000000000    0.8061310000000000    0.6622490000000000 P
   0.0831840000000000    0.1938690000000000    0.3377510000000000 P
   0.8046670000000000    0.4905550000000000    0.9024310000000000 P
   0.1953330000000000    0.5094450000000000    0.0975690000000000 P
   0.1938690000000000    0.0831840000000000    0.8377510000000000 P
   0.5094450000000000    0.1953330000000000    0.5975690000000000 P
   0.4905550000000000    0.8046670000000000    0.4024310000000000 P
   0.8061310000000000    0.9168160000000000    0.1622490000000000 P
   0.7193600000000000    0.9615570000000000    0.5874750000000000 O
   0.0384430000000000    0.2806400000000000    0.9125250000000000 O
   0.7436560000000000    0.5121869999999999    0.7757620000000000 O
   0.3291110000000000    0.8993740000000000    0.9539890000000000 O
   0.0594890000000000    0.0747320000000000    0.2963930000000000 O
   0.1006260000000000    0.6708890000000000    0.5460110000000000 O
   0.8993740000000000    0.3291110000000000    0.4539890000000000 O
   0.3298300000000000    0.1598770000000000    0.6584290000000000 O
   0.8401230000000000    0.6701700000000000    0.8415710000000000 O
   0.2563440000000000    0.4878130000000000    0.2242380000000000 O
   0.9615570000000000    0.7193600000000000    0.0874750000000000 O
   0.4878130000000000    0.2563440000000000    0.7242380000000000 O
   0.6695719999999999    0.4783800000000000    0.0814230000000000 O
   0.6701700000000000    0.8401230000000000    0.3415710000000000 O
   0.5216200000000000    0.3304280000000000    0.4185770000000000 O
   0.0747320000000000    0.0594890000000000    0.7963930000000000 O
   0.4783800000000000    0.6695719999999999    0.5814230000000000 O
   0.3304280000000000    0.5216200000000000    0.9185770000000000 O
   0.5121869999999999    0.7436560000000000    0.2757620000000000 O
   0.9405110000000000    0.9252680000000000    0.7036070000000000 O
   0.1598770000000000    0.3298300000000000    0.1584290000000000 O
   0.2806400000000000    0.0384430000000000    0.4125250000000000 O
   0.6708890000000000    0.1006260000000000    0.0460110000000000 O
   0.9252680000000000    0.9405110000000000    0.2036070000000000 O
