Li1 Zn1 Sb4 O8
1.0
   3.2297850000000001    0.2498950000000000    1.2292909999999999
   2.0702859999999998    7.8253480000000000    3.4751729999999998
   1.5025759999999999    2.5498810000000001   10.4460650000000008
Li Zn Sb O
1 1 4 8
direct
   0.5870240000000000    0.5327450000000000    0.4871610000000000 Li
   0.2108620000000000    0.0931230000000000    0.1778340000000000 Zn
   0.4528340000000000    0.2264860000000000    0.5127750000000000 Sb
   0.1387130000000000    0.7435000000000000    0.1475130000000000 Sb
   0.8988910000000000    0.3822810000000000    0.8574770000000000 Sb
   0.4139760000000000    0.8314430000000000    0.5555050000000000 Sb
   0.7899730000000000    0.6899030000000000    0.7162060000000000 O
   0.5884930000000000    0.3853520000000000    0.7143730000000000 O
   0.4406350000000000    0.7458510000000000    0.2738880000000000 O
   0.1105470000000000    0.4386630000000000    0.3442320000000000 O
   0.0719680000000000    0.0149650000000000    0.6380810000000000 O
   0.8940680000000000    0.0449710000000000    0.0908300000000000 O
   0.8508320000000000    0.0635250000000000    0.4004760000000000 O
   0.1793480000000000    0.3811630000000000    0.9924390000000000 O
