pymatgen with grid density = 1577 / number of atoms
0
Gamma
2 2 4
