Li1 Mg30 Bi1 O32
1.0
   8.5930049999999998    0.0000000000000000    0.0000000000000000
   0.0000000000000000    8.5930049999999998    0.0000000000000000
   0.0000000000000000    0.0000000000000000    8.5896939999999997
Li Mg Bi O
1 30 1 32
direct
   0.0000000000000000    0.0000000000000000    0.0000000000000000 Li
   0.5000000000000000    0.0000000000000000    0.0000000000000000 Mg
   0.0000000000000000    0.5000000000000000    0.0000000000000000 Mg
   0.0000000000000000    0.0000000000000000    0.5000000000000000 Mg
   0.5000000000000000    0.0000000000000000    0.5000000000000000 Mg
   0.0000000000000000    0.5000000000000000    0.5000000000000000 Mg
   0.5000000000000000    0.5000000000000000    0.5000000000000000 Mg
   0.2392330000000000    0.2392330000000000    0.0000000000000000 Mg
   0.7607670000000000    0.2392330000000000    0.0000000000000000 Mg
   0.2392330000000000    0.7607670000000000    0.0000000000000000 Mg
   0.7607670000000000    0.7607670000000000    0.0000000000000000 Mg
   0.2484610000000000    0.2484610000000000    0.5000000000000000 Mg
   0.7515390000000000    0.2484610000000000    0.5000000000000000 Mg
   0.2484610000000000    0.7515390000000000    0.5000000000000000 Mg
   0.7515390000000000    0.7515390000000000    0.5000000000000000 Mg
   0.2459230000000000    0.0000000000000000    0.2476050000000000 Mg
   0.7540770000000000    0.0000000000000000    0.2476050000000000 Mg
   0.2419040000000000    0.5000000000000000    0.2565560000000000 Mg
   0.7580960000000000    0.5000000000000000    0.2565560000000000 Mg
   0.2459230000000000    0.0000000000000000    0.7523950000000000 Mg
   0.7540770000000000    0.0000000000000000    0.7523950000000000 Mg
   0.2419040000000000    0.5000000000000000    0.7434440000000000 Mg
   0.7580960000000000    0.5000000000000000    0.7434440000000000 Mg
   0.0000000000000000    0.2459230000000000    0.2476050000000000 Mg
   0.5000000000000000    0.2419040000000000    0.2565560000000000 Mg
   0.0000000000000000    0.7540770000000000    0.2476050000000000 Mg
   0.5000000000000000    0.7580960000000000    0.2565560000000000 Mg
   0.0000000000000000    0.2459230000000000    0.7523950000000000 Mg
   0.5000000000000000    0.2419040000000000    0.7434440000000000 Mg
   0.0000000000000000    0.7540770000000000    0.7523950000000000 Mg
   0.5000000000000000    0.7580960000000000    0.7434440000000000 Mg
   0.5000000000000000    0.5000000000000000    0.0000000000000000 Bi
   0.0000000000000000    0.0000000000000000    0.2572530000000000 O
   0.5000000000000000    0.0000000000000000    0.2534800000000000 O
   0.0000000000000000    0.5000000000000000    0.2534800000000000 O
   0.5000000000000000    0.5000000000000000    0.2667270000000000 O
   0.0000000000000000    0.0000000000000000    0.7427470000000000 O
   0.5000000000000000    0.0000000000000000    0.7465200000000000 O
   0.0000000000000000    0.5000000000000000    0.7465200000000000 O
   0.5000000000000000    0.5000000000000000    0.7332730000000000 O
   0.2515290000000000    0.2515290000000000    0.2491930000000000 O
   0.7484710000000000    0.2515290000000000    0.2491930000000000 O
   0.2515290000000000    0.7484710000000000    0.2491930000000000 O
   0.7484710000000000    0.7484710000000000    0.2491930000000000 O
   0.2515290000000000    0.2515290000000000    0.7508070000000000 O
   0.7484710000000000    0.2515290000000000    0.7508070000000000 O
   0.2515290000000000    0.7484710000000000    0.7508070000000000 O
   0.7484710000000000    0.7484710000000000    0.7508070000000000 O
   0.2549270000000000    0.0000000000000000    0.0000000000000000 O
   0.7450730000000000    0.0000000000000000    0.0000000000000000 O
   0.2342700000000000    0.5000000000000000    0.0000000000000000 O
   0.7657300000000000    0.5000000000000000    0.0000000000000000 O
   0.2513370000000000    0.0000000000000000    0.5000000000000000 O
   0.7486630000000000    0.0000000000000000    0.5000000000000000 O
   0.2485380000000000    0.5000000000000000    0.5000000000000000 O
   0.7514620000000000    0.5000000000000000    0.5000000000000000 O
   0.0000000000000000    0.2549270000000000    0.0000000000000000 O
   0.5000000000000000    0.2342700000000000    0.0000000000000000 O
   0.0000000000000000    0.7450730000000000    0.0000000000000000 O
   0.5000000000000000    0.7657300000000000    0.0000000000000000 O
   0.0000000000000000    0.2513370000000000    0.5000000000000000 O
   0.5000000000000000    0.2485380000000000    0.5000000000000000 O
   0.0000000000000000    0.7486630000000000    0.5000000000000000 O
   0.5000000000000000    0.7514620000000000    0.5000000000000000 O
