Li18 Mg6 P8 O32 F6
1.0
   6.3805189999999996  -11.0513820000000003    0.0000000000000000
   6.3805189999999996   11.0513820000000003    0.0000000000000000
   0.0000000000000000    0.0000000000000000    5.0692060000000003
Li Mg P O F
18 6 8 32 6
direct
   0.1684310000000000    0.0834260000000000    0.8470690000000000 Li
   0.9149950000000000    0.8315690000000000    0.8470690000000000 Li
   0.9165740000000000    0.0850050000000000    0.8470690000000000 Li
   0.8315690000000000    0.9165740000000000    0.3470690000000000 Li
   0.0850050000000000    0.1684310000000000    0.3470690000000000 Li
   0.0834260000000000    0.9149950000000000    0.3470690000000000 Li
   0.3950940000000000    0.5696570000000000    0.8008340000000000 Li
   0.1745630000000000    0.6049060000000001    0.8008340000000000 Li
   0.4303430000000000    0.8254370000000000    0.8008340000000000 Li
   0.6049060000000001    0.4303430000000000    0.3008340000000000 Li
   0.8254370000000000    0.3950940000000000    0.3008340000000000 Li
   0.5696570000000000    0.1745630000000000    0.3008340000000000 Li
   0.3340820000000000    0.4204720000000000    0.2700200000000000 Li
   0.0863890000000000    0.6659180000000000    0.2700200000000000 Li
   0.5795280000000000    0.9136110000000000    0.2700200000000000 Li
   0.6659180000000000    0.5795280000000000    0.7700200000000000 Li
   0.9136110000000000    0.3340820000000000    0.7700200000000000 Li
   0.4204720000000000    0.0863890000000000    0.7700200000000000 Li
   0.4252000000000000    0.3578080000000000    0.7689970000000000 Mg
   0.9326090000000000    0.5748000000000000    0.7689970000000000 Mg
   0.6421920000000000    0.0673910000000000    0.7689970000000000 Mg
   0.5748000000000000    0.6421920000000000    0.2689970000000000 Mg
   0.0673910000000000    0.4252000000000000    0.2689970000000000 Mg
   0.3578080000000000    0.9326090000000000    0.2689970000000000 Mg
   0.1532320000000000    0.3192890000000000    0.7542000000000000 P
   0.1660560000000000    0.8467680000000000    0.7542000000000000 P
   0.6807110000000000    0.8339440000000000    0.7542000000000000 P
   0.8467680000000000    0.6807110000000000    0.2542000000000000 P
   0.8339440000000000    0.1532320000000000    0.2542000000000000 P
   0.3192890000000000    0.1660560000000000    0.2542000000000000 P
   0.3333330000000000    0.6666670000000000    0.2951250000000000 P
   0.6666670000000000    0.3333330000000000    0.7951250000000000 P
   0.2024250000000000    0.5981880000000001    0.1856600000000000 O
   0.3957630000000000    0.7975750000000000    0.1856600000000000 O
   0.4018120000000000    0.6042370000000000    0.1856600000000000 O
   0.7975750000000000    0.4018120000000000    0.6856600000000000 O
   0.6042370000000000    0.2024250000000000    0.6856600000000000 O
   0.5981880000000001    0.3957630000000000    0.6856600000000000 O
   0.0914910000000000    0.1778710000000000    0.7525180000000000 O
   0.0863800000000000    0.9085090000000000    0.7525180000000000 O
   0.8221290000000000    0.9136200000000000    0.7525180000000000 O
   0.9085090000000000    0.8221290000000000    0.2525180000000000 O
   0.9136200000000000    0.0914910000000000    0.2525180000000000 O
   0.1778710000000000    0.0863800000000000    0.2525180000000000 O
   0.2809760000000000    0.3786750000000000    0.8816120000000000 O
   0.0976990000000000    0.7190240000000000    0.8816120000000000 O
   0.6213250000000000    0.9023010000000000    0.8816120000000000 O
   0.7190240000000000    0.6213250000000000    0.3816120000000000 O
   0.9023010000000000    0.2809760000000000    0.3816120000000000 O
   0.3786750000000000    0.0976990000000000    0.3816120000000000 O
   0.0737660000000000    0.3580650000000000    0.9059680000000000 O
   0.2842990000000000    0.9262340000000000    0.9059680000000000 O
   0.6419350000000000    0.7157010000000000    0.9059680000000000 O
   0.9262340000000000    0.6419350000000000    0.4059680000000000 O
   0.7157010000000000    0.0737660000000000    0.4059680000000000 O
   0.3580650000000000    0.2842990000000000    0.4059680000000000 O
   0.1663720000000000    0.3596070000000000    0.4578770000000000 O
   0.1932350000000000    0.8336280000000000    0.4578770000000000 O
   0.6403930000000000    0.8067650000000000    0.4578770000000000 O
   0.8336280000000000    0.6403930000000000    0.9578770000000000 O
   0.8067650000000000    0.1663720000000000    0.9578770000000000 O
   0.3596070000000000    0.1932350000000000    0.9578770000000000 O
   0.3333330000000000    0.6666670000000000    0.6037850000000000 O
   0.6666670000000000    0.3333330000000000    0.1037850000000000 O
   0.4834690000000000    0.5228480000000000    0.5739430000000000 F
   0.0393780000000000    0.5165310000000000    0.5739430000000000 F
   0.4771520000000000    0.9606220000000000    0.5739430000000000 F
   0.5165310000000000    0.4771520000000000    0.0739430000000000 F
   0.9606220000000000    0.4834690000000000    0.0739430000000000 F
   0.5228480000000000    0.0393780000000000    0.0739430000000000 F
