ALGO = Fast
EDIFF = 0.00075
ENCUT = 520
IBRION = 2
ISIF = 3
ISMEAR = -5
ISPIN = 2
LASPH = True
LMAXMIX = 6
LORBIT = 11
LREAL = Auto
LWAVE = False
MAGMOM = 1*0.086 3*0.009 1*0.008 1*0.01 1*0.009 1*0.008 1*0.01 1*0.045 1*0.043 1*0.05 1*0.045 1*0.043 1*0.05
NELM = 100
NSW = 99
PREC = Accurate
SIGMA = 0.05
