Li1 Nd2 H6 O6
1.0
   6.5734199999999996   -0.0610500000000000   -0.0006830000000000
  -3.3337300000000001    5.7201360000000001    0.0091140000000000
  -0.0005660000000000    0.0056670000000000    3.8105340000000001
Li Nd H O
1 2 6 6
direct
   0.0000000000000000    0.0000000000000000    0.5000000000000000 Li
   0.3351060000000000    0.6676520000000000    0.2602300000000000 Nd
   0.6648940000000000    0.3323480000000000    0.7397700000000000 Nd
   0.8928650000000000    0.7234900000000000    0.1620360000000000 H
   0.8348040000000000    0.1152490000000000    0.1584590000000000 H
   0.2663450000000000    0.1680420000000000    0.1485650000000000 H
   0.1071350000000000    0.2765100000000000    0.8379640000000000 H
   0.1651960000000000    0.8847510000000000    0.8415410000000000 H
   0.7336549999999999    0.8319580000000000    0.8514350000000001 H
   0.9181920000000000    0.5981740000000000    0.2530200000000000 O
   0.6822770000000000    0.0839760000000000    0.2563610000000000 O
   0.3918990000000000    0.3145600000000000    0.2587910000000000 O
   0.0818080000000000    0.4018260000000000    0.7469800000000000 O
   0.3177230000000000    0.9160239999999999    0.7436390000000000 O
   0.6081010000000000    0.6854400000000000    0.7412090000000000 O
