Li6 Si2 Bi2 C2 O14
1.0
   7.1450100000000001    0.0000000000000000    0.0000000000000000
   0.0000000000000000    4.9744219999999997    0.0000000000000000
   0.0000000000000000    0.3343200000000000    9.0646290000000000
Li Si Bi C O
6 2 2 2 14
direct
   0.7500000000000000    0.2484230000000000    0.9212950000000000 Li
   0.9299690000000000    0.7789640000000000    0.7368660000000000 Li
   0.5700310000000000    0.7789640000000000    0.7368660000000000 Li
   0.4299690000000000    0.2210360000000000    0.2631340000000000 Li
   0.0700310000000000    0.2210360000000000    0.2631340000000000 Li
   0.2500000000000000    0.7515770000000001    0.0787050000000000 Li
   0.7500000000000000    0.2843190000000000    0.6041390000000000 Si
   0.2500000000000000    0.7156810000000000    0.3958610000000000 Si
   0.2500000000000000    0.2309420000000000    0.6494860000000000 Bi
   0.7500000000000000    0.7690580000000000    0.3505140000000000 Bi
   0.2500000000000000    0.2862590000000000    0.9684250000000000 C
   0.7500000000000000    0.7137410000000000    0.0315750000000000 C
   0.7500000000000000    0.6703840000000000    0.8904000000000000 O
   0.2500000000000000    0.0438110000000000    0.9210630000000000 O
   0.2500000000000000    0.4937600000000000    0.8782880000000000 O
   0.9302450000000000    0.1681930000000000    0.7007150000000000 O
   0.5697550000000000    0.1681930000000000    0.7007150000000000 O
   0.7500000000000000    0.6185040000000001    0.5987900000000000 O
   0.2500000000000000    0.7933789999999999    0.5727090000000000 O
   0.7500000000000000    0.2066210000000000    0.4272910000000000 O
   0.2500000000000000    0.3814960000000000    0.4012100000000000 O
   0.4302450000000000    0.8318070000000000    0.2992850000000000 O
   0.0697550000000000    0.8318070000000000    0.2992850000000000 O
   0.7500000000000000    0.5062400000000000    0.1217120000000000 O
   0.7500000000000000    0.9561890000000000    0.0789370000000000 O
   0.2500000000000000    0.3296160000000000    0.1096000000000000 O
