Li1 Pr2 Pa2 O8
1.0
   7.6097700000000001    0.0000000000000000    5.3809199999999997
   4.3427110000000004    3.6542249999999998   10.0012380000000007
   0.5442580000000000    0.0204060000000000    7.3016829999999997
Li Pr Pa O
1 2 2 8
direct
   0.5490680000000000    0.5000000000000000    0.0000000000000000 Li
   0.0036810000000000    0.0000000000000000    0.0000000000000000 Pr
   0.8293500000000000    0.5000000000000000    0.0000000000000000 Pr
   0.5706780000000000    0.0000000000000000    0.0000000000000000 Pa
   0.2363630000000000    0.5000000000000000    0.0000000000000000 Pa
   0.3732100000000000    0.9272000000000000    0.7461070000000000 O
   0.1846930000000000    0.4512460000000000    0.7978520000000000 O
   0.3826860000000000    0.3585800000000000    0.4020610000000000 O
   0.8938010000000000    0.9914420000000000    0.7724560000000000 O
   0.9737180000000000    0.0728000000000000    0.2538930000000000 O
   0.5019080000000000    0.6414200000000000    0.5979390000000000 O
   0.8850360000000000    0.5487540000000000    0.2021480000000000 O
   0.6491410000000000    0.0085580000000000    0.2275440000000000 O
