pymatgen with grid density = 1190 / number of atoms
0
Gamma
3 5 2
