Li6 Sn6 P8 O32
1.0
   8.6059629999999991    0.0000000000000000    0.0000000000000000
   0.0000000000000000    7.7284340000000000    0.0000000000000000
   0.0000000000000000    0.4925990000000000   10.6356090000000005
Li Sn P O
6 6 8 32
direct
   0.6263130000000000    0.1468030000000000    0.1633210000000000 Li
   0.1263130000000000    0.8531970000000000    0.8366790000000000 Li
   0.8565420000000000    0.6277290000000000    0.4244210000000000 Li
   0.8785300000000000    0.6480240000000000    0.9173610000000000 Li
   0.3565420000000000    0.3722710000000000    0.5755790000000000 Li
   0.3785300000000000    0.3519760000000000    0.0826390000000000 Li
   0.0117020000000000    0.2541440000000000    0.6357440000000000 Sn
   0.0058230000000000    0.2543730000000000    0.1155490000000000 Sn
   0.6262290000000000    0.1165570000000000    0.6593240000000000 Sn
   0.1262290000000000    0.8834430000000000    0.3406760000000000 Sn
   0.5117020000000000    0.7458560000000000    0.3642560000000000 Sn
   0.5058230000000000    0.7456270000000000    0.8844510000000000 Sn
   0.7997210000000000    0.0559700000000000    0.3807590000000000 P
   0.8124340000000000    0.0368460000000000    0.9081510000000000 P
   0.2997210000000000    0.9440300000000000    0.6192410000000000 P
   0.3124340000000000    0.9631540000000000    0.0918490000000000 P
   0.6869729999999999    0.5529420000000000    0.6424380000000000 P
   0.6991500000000000    0.5348260000000000    0.1374010000000000 P
   0.1991500000000000    0.4651740000000000    0.8625990000000000 P
   0.1869730000000000    0.4470580000000000    0.3575620000000000 P
   0.8431990000000000    0.1829070000000000    0.8030910000000000 O
   0.8843580000000000    0.1690400000000000    0.2769890000000000 O
   0.8065550000000000    0.1640620000000000    0.5014330000000000 O
   0.3797500000000000    0.1199910000000000    0.5936940000000001 O
   0.8184730000000000    0.1262680000000000    0.0377100000000000 O
   0.4263760000000000    0.1097810000000000    0.0962730000000000 O
   0.1282280000000000    0.9759640000000001    0.6583740000000000 O
   0.6386039999999999    0.9774929999999999    0.8911330000000000 O
   0.1386040000000000    0.0225070000000000    0.1088670000000000 O
   0.6282280000000000    0.0240360000000000    0.3416260000000000 O
   0.8797500000000000    0.8800090000000000    0.4063060000000000 O
   0.3065550000000000    0.8359380000000000    0.4985670000000000 O
   0.9263760000000000    0.8902190000000000    0.9037269999999999 O
   0.3843580000000000    0.8309600000000000    0.7230110000000000 O
   0.3184730000000000    0.8737320000000000    0.9622900000000000 O
   0.3431990000000000    0.8170930000000000    0.1969090000000000 O
   0.6451100000000000    0.6913800000000000    0.5369640000000000 O
   0.6795650000000000    0.6338870000000000    0.7758950000000000 O
   0.6527510000000000    0.6784520000000001    0.0345220000000000 O
   0.0848220000000000    0.6118680000000000    0.8569410000000000 O
   0.7110270000000000    0.6218140000000000    0.2671460000000000 O
   0.0715210000000000    0.6008670000000000    0.3618400000000000 O
   0.3571880000000000    0.5014800000000000    0.3844760000000000 O
   0.8571879999999999    0.4985200000000000    0.6155240000000000 O
   0.3690540000000000    0.5189130000000000    0.9042470000000000 O
   0.8690540000000000    0.4810870000000000    0.0957530000000000 O
   0.5715209999999999    0.3991330000000000    0.6381599999999999 O
   0.2110270000000000    0.3781860000000000    0.7328540000000000 O
   0.5848220000000000    0.3881320000000000    0.1430590000000000 O
   0.1795650000000000    0.3661130000000000    0.2241050000000000 O
   0.1451100000000000    0.3086200000000000    0.4630360000000000 O
   0.1527510000000000    0.3215480000000000    0.9654779999999999 O
