pymatgen with grid density = 927 / number of atoms
0
Gamma
2 2 2
