K18 Li6 I4 O26
1.0
   4.7646249999999997   -8.2525729999999999    0.0000000000000000
   4.7646249999999997    8.2525729999999999    0.0000000000000000
   0.0000000000000000    0.0000000000000000   11.7532929999999993
K Li I O
18 6 4 26
direct
   0.5497640000000000    0.8977450000000000    0.2500000000000000 K
   0.4502360000000000    0.3479810000000000    0.7500000000000000 K
   0.6520190000000000    0.1022550000000000    0.7500000000000000 K
   0.7799980000000000    0.0000000000000000    0.0000000000000000 K
   0.8977450000000000    0.5497640000000000    0.7500000000000000 K
   0.0000000000000000    0.7799980000000000    0.0000000000000000 K
   0.3747010000000000    0.1074870000000000    0.2500000000000000 K
   0.3479810000000000    0.4502360000000000    0.2500000000000000 K
   0.7799980000000000    0.0000000000000000    0.5000000000000000 K
   0.7327860000000000    0.6252990000000000    0.2500000000000000 K
   0.8925130000000000    0.2672140000000000    0.2500000000000000 K
   0.1022550000000000    0.6520190000000000    0.2500000000000000 K
   0.6252990000000000    0.7327860000000000    0.7500000000000000 K
   0.0000000000000000    0.7799980000000000    0.5000000000000000 K
   0.2672140000000000    0.8925130000000000    0.7500000000000000 K
   0.1074870000000000    0.3747010000000000    0.7500000000000000 K
   0.2200020000000000    0.2200020000000000    0.5000000000000000 K
   0.2200020000000000    0.2200020000000000    0.0000000000000000 K
   0.5403090000000000    0.5403090000000000    0.0000000000000000 Li
   0.4596910000000000    0.0000000000000000    0.0000000000000000 Li
   0.5403090000000000    0.5403090000000000    0.5000000000000000 Li
   0.0000000000000000    0.4596910000000000    0.5000000000000000 Li
   0.4596910000000000    0.0000000000000000    0.5000000000000000 Li
   0.0000000000000000    0.4596910000000000    0.0000000000000000 Li
   0.3333330000000000    0.6666670000000000    0.9904070000000000 I
   0.6666670000000000    0.3333330000000000    0.0095930000000000 I
   0.6666670000000000    0.3333330000000000    0.4904070000000000 I
   0.3333330000000000    0.6666670000000000    0.5095930000000000 I
   0.3016830000000000    0.8157170000000000    0.0838080000000000 O
   0.4859660000000000    0.1842830000000000    0.9161920000000000 O
   0.1842830000000000    0.4859660000000000    0.4161920000000000 O
   0.1518150000000000    0.6321320000000000    0.6006920000000000 O
   0.4803170000000000    0.8481850000000000    0.8993080000000000 O
   0.5196830000000000    0.3678680000000000    0.1006920000000000 O
   0.8157170000000000    0.3016830000000000    0.5838080000000000 O
   0.3678680000000000    0.5196830000000000    0.6006920000000000 O
   0.6983170000000000    0.5140340000000000    0.9161920000000000 O
   0.3016830000000000    0.8157170000000000    0.4161920000000000 O
   0.1842830000000000    0.4859660000000000    0.0838080000000000 O
   0.5196830000000000    0.3678680000000000    0.3993080000000000 O
   0.8481850000000000    0.4803170000000000    0.1006920000000000 O
   0.4859660000000000    0.1842830000000000    0.5838080000000000 O
   0.1518150000000000    0.6321320000000000    0.8993080000000000 O
   0.6321320000000000    0.1518150000000000    0.1006920000000000 O
   0.3678680000000000    0.5196830000000000    0.8993080000000000 O
   0.5140340000000000    0.6983170000000000    0.4161920000000000 O
   0.0000000000000000    0.0000000000000000    0.2500000000000000 O
   0.4803170000000000    0.8481850000000000    0.6006920000000000 O
   0.6983170000000000    0.5140340000000000    0.5838080000000000 O
   0.8157170000000000    0.3016830000000000    0.9161920000000000 O
   0.5140340000000000    0.6983170000000000    0.0838080000000000 O
   0.6321320000000000    0.1518150000000000    0.3993080000000000 O
   0.0000000000000000    0.0000000000000000    0.7500000000000000 O
   0.8481850000000000    0.4803170000000000    0.3993080000000000 O
