Li12 Sn6 P16 O58
1.0
   9.8873250000000006    0.0000000000000000    0.0000000000000000
   4.8879320000000002    8.5952040000000007    0.0000000000000000
   0.1063850000000000    0.1064690000000000   14.0542730000000002
Li Sn P O
12 6 16 58
direct
   0.0161090000000000    0.0380870000000000    0.5056280000000000 Li
   0.0032260000000000    0.0030310000000000    0.0042950000000000 Li
   0.0893140000000000    0.6810970000000000    0.0582420000000000 Li
   0.3288100000000000    0.3261170000000000    0.8879820000000000 Li
   0.2322090000000000    0.6661100000000000    0.5569040000000000 Li
   0.6621440000000000    0.1051060000000000    0.5572610000000000 Li
   0.3396680000000000    0.7680550000000000    0.9460550000000000 Li
   0.6763749999999999    0.2303180000000000    0.0584890000000000 Li
   0.3308130000000000    0.9040640000000000    0.4405340000000000 Li
   0.7701150000000000    0.3345490000000000    0.4439830000000000 Li
   0.8962880000000000    0.3357560000000000    0.9424260000000000 Li
   0.8980420000000000    0.7718540000000000    0.4440560000000000 Li
   0.0003180000000000    0.4325110000000000    0.7457980000000000 Sn
   0.9979500000000000    0.5619020000000000    0.2495930000000000 Sn
   0.4344620000000000    0.0016840000000000    0.2448730000000000 Sn
   0.5669990000000000    0.9943060000000000    0.7518770000000000 Sn
   0.4376010000000000    0.5660160000000000    0.7487160000000000 Sn
   0.5648970000000000    0.4360230000000000    0.2517230000000000 Sn
   0.0822270000000000    0.2161580000000000    0.3392310000000000 P
   0.2170310000000000    0.0832060000000000    0.8409720000000001 P
   0.0894270000000000    0.6870560000000000    0.8473360000000000 P
   0.3318390000000000    0.3377050000000000    0.1243100000000000 P
   0.3371880000000000    0.3325160000000000    0.6244430000000000 P
   0.2229780000000000    0.6891140000000000    0.3439470000000000 P
   0.3081940000000000    0.7776810000000000    0.1564250000000000 P
   0.6902950000000000    0.0822730000000000    0.3467640000000000 P
   0.3057570000000000    0.9200590000000000    0.6505110000000000 P
   0.6849620000000000    0.2217400000000000    0.8442680000000000 P
   0.7762410000000000    0.3083500000000000    0.6556830000000000 P
   0.6707270000000000    0.6614409999999999    0.8769080000000000 P
   0.6645740000000000    0.6693280000000000    0.3781940000000000 P
   0.9159300000000000    0.3064190000000000    0.1508460000000000 P
   0.7825080000000000    0.9190690000000000    0.1576040000000000 P
   0.9182860000000000    0.7759320000000000    0.6582570000000000 P
   0.0130010000000000    0.1986600000000000    0.2391780000000000 O
   0.9877960000000000    0.2210700000000000    0.0602750000000000 O
   0.0751910000000000    0.2500360000000000    0.8449480000000000 O
   0.2007820000000000    0.0171670000000000    0.7396509999999999 O
   0.2181550000000000    0.9946080000000000    0.5608280000000000 O
   0.2500550000000000    0.0762260000000000    0.3422590000000000 O
   0.0826500000000000    0.3714390000000000    0.3378500000000000 O
   0.2054470000000000    0.3126840000000000    0.6735350000000000 O
   0.1089340000000000    0.5212690000000000    0.8360130000000000 O
   0.0068590000000000    0.7803460000000000    0.5711550000000000 O
   0.0029380000000000    0.7872830000000000    0.7531050000000000 O
   0.0770470000000000    0.6686720000000000    0.3463280000000000 O
   0.3122290000000000    0.2046650000000000    0.1689090000000000 O
   0.3665410000000000    0.0995480000000000    0.8380490000000000 O
   0.1918990000000000    0.4962440000000000    0.1613600000000000 O
   0.3344650000000000    0.3406260000000000    0.0173020000000000 O
   0.3397860000000000    0.3365970000000000    0.5188520000000000 O
   0.3188450000000000    0.4917630000000000    0.6639370000000000 O
   0.5316120000000000    0.0927690000000000    0.3348810000000000 O
   0.4961240000000000    0.1930570000000000    0.6651359999999999 O
   0.2549480000000000    0.6688090000000000    0.8452130000000000 O
   0.2041980000000000    0.7908480000000000    0.2496070000000000 O
   0.2174880000000000    0.7806180000000000    0.0690460000000000 O
   0.2222220000000000    0.7792770000000000    0.4304670000000000 O
   0.3705480000000000    0.5297320000000000    0.3357540000000000 O
   0.4895400000000000    0.3214950000000000    0.1614310000000000 O
   0.3242800000000000    0.7543960000000000    0.6576130000000000 O
   0.5193340000000000    0.3668620000000000    0.8347990000000000 O
   0.6675400000000000    0.0762770000000000    0.8467900000000000 O
   0.2085350000000000    0.9845110000000000    0.9192290000000000 O
   0.8009230000000001    0.0113550000000000    0.0784080000000000 O
   0.7997970000000000    0.9905190000000000    0.2581260000000000 O
   0.3274800000000000    0.9220310000000000    0.1561310000000000 O
   0.4662300000000000    0.6281500000000000    0.1649490000000000 O
   0.6716800000000001    0.2479540000000000    0.3465440000000000 O
   0.5122970000000000    0.6782260000000000    0.8370720000000000 O
   0.6271820000000000    0.4674950000000000    0.6610580000000000 O
   0.7810930000000000    0.2161460000000000    0.5687230000000000 O
   0.7717690000000000    0.2289710000000000    0.9302150000000000 O
   0.7848120000000000    0.2097650000000000    0.7503470000000000 O
   0.7494130000000000    0.3268440000000000    0.1590920000000000 O
   0.5087320000000000    0.8060900000000000    0.3356410000000000 O
   0.4654500000000000    0.9098309999999999    0.6598619999999999 O
   0.6843540000000000    0.5098610000000000    0.3396220000000000 O
   0.6678140000000000    0.6568720000000000    0.9824820000000000 O
   0.6639050000000000    0.6708450000000000    0.4844140000000000 O
   0.8096040000000000    0.5036310000000001    0.8363540000000000 O
   0.6298120000000000    0.9140400000000000    0.1608300000000000 O
   0.6876660000000000    0.7953560000000000    0.8287330000000001 O
   0.9221980000000000    0.3247430000000000    0.6562000000000000 O
   0.9872339999999999    0.2002820000000000    0.4179670000000000 O
   0.9044960000000000    0.4667420000000000    0.1607540000000000 O
   0.8045030000000000    0.6868069999999999    0.3364950000000000 O
   0.9048510000000000    0.6279080000000000    0.6636550000000000 O
   0.7547990000000000    0.9227160000000000    0.6578090000000000 O
   0.7745950000000000    0.9982910000000000    0.4368260000000000 O
   0.9232610000000000    0.7508600000000000    0.1571390000000000 O
   0.0061240000000000    0.7732830000000001    0.9346460000000000 O
