ALGO = Fast
EDIFF = 0.0019500000000000001
ENCUT = 520
IBRION = 2
ISIF = 3
ISMEAR = -5
ISPIN = 2
LASPH = True
LMAXMIX = 6
LORBIT = 11
LREAL = Auto
LWAVE = False
MAGMOM = 1*0.002 2*-0.0 2*0.002 1*-0.0 1*-0.001 1*-0.0 1*0.105 1*-0.002 1*0.0 1*-0.002 1*0.0 1*-0.002 1*0.0 1*0.003 1*0.002 1*0.041 1*0.004 1*0.097 1*0.077 2*0.003 1*0.077 1*0.097 1*0.004 1*0.03 1*0.041 1*0.097 1*0.077 1*0.001 1*0.03 1*0.004 1*0.002 1*0.041 1*0.002 1*0.03 2*0.001
NELM = 100
NSW = 99
PREC = Accurate
SIGMA = 0.05
