Li6 Bi3 P6 O24
1.0
   4.2967120000000003   -7.4421229999999996    0.0000000000000000
   4.2967120000000003    7.4421229999999996    0.0000000000000000
   0.0000000000000000    0.0000000000000000    7.8749039999999999
Li Bi P O
6 3 6 24
direct
   0.6448469999999999    0.6446020000000000    0.3653800000000000 Li
   0.0000000000000000    0.0000000000000000    0.5024720000000000 Li
   0.3333330000000000    0.6666670000000000    0.6166450000000000 Li
   0.9997549999999999    0.3551530000000000    0.3653800000000000 Li
   0.3553980000000000    0.0002450000000000    0.3653800000000000 Li
   0.6666670000000000    0.3333330000000000    0.5365740000000000 Li
   0.3333330000000000    0.6666670000000000    0.0005610000000000 Bi
   0.0000000000000000    0.0000000000000000    0.9367870000000000 Bi
   0.6666670000000000    0.3333330000000000    0.0614300000000000 Bi
   0.6923070000000000    0.9809540000000000    0.2428460000000000 P
   0.9822700000000000    0.3470390000000000    0.7525380000000000 P
   0.2886480000000000    0.3076930000000000    0.2428460000000000 P
   0.6529610000000000    0.6352310000000000    0.7525380000000000 P
   0.0190460000000000    0.7113520000000000    0.2428460000000000 P
   0.3647690000000000    0.0177300000000000    0.7525380000000000 P
   0.9066170000000000    0.3725670000000000    0.5865800000000000 O
   0.2176760000000000    0.0754500000000000    0.7559870000000000 O
   0.2765040000000000    0.8118260000000000    0.7639350000000000 O
   0.4066360000000000    0.5166280000000000    0.2287130000000000 O
   0.4202970000000000    0.2306420000000000    0.2529430000000000 O
   0.6003460000000000    0.5106110000000000    0.9119520000000000 O
   0.6274330000000000    0.5340490000000000    0.5865800000000000 O
   0.4659510000000000    0.0933830000000000    0.5865800000000000 O
   0.4893890000000000    0.0897360000000000    0.9119520000000000 O
   0.8103440000000000    0.5797030000000000    0.2529430000000000 O
   0.4833720000000000    0.8900080000000000    0.2287130000000000 O
   0.0878690000000000    0.8441680000000000    0.3896330000000000 O
   0.5353220000000000    0.7234960000000000    0.7639350000000000 O
   0.7693580000000000    0.1896560000000000    0.2529430000000000 O
   0.9102640000000000    0.3996540000000000    0.9119520000000000 O
   0.7484680000000000    0.9300820000000000    0.0677160000000000 O
   0.7562990000000001    0.9121310000000000    0.3896330000000000 O
   0.1099920000000000    0.5933640000000000    0.2287130000000000 O
   0.9245500000000000    0.1422250000000000    0.7559870000000000 O
   0.1881740000000000    0.4646780000000000    0.7639350000000000 O
   0.8577750000000000    0.7823240000000000    0.7559870000000000 O
   0.1558320000000000    0.2437010000000000    0.3896330000000000 O
   0.1816130000000000    0.2515320000000000    0.0677160000000000 O
   0.0699180000000000    0.8183870000000000    0.0677160000000000 O
