Ba12 Li4 Si8 Cl2 O30
1.0
   2.8876830000000000   -5.0016140000000000    0.0000000000000000
   2.8876830000000000    5.0016140000000000    0.0000000000000000
   0.0000000000000000    0.0000000000000000   29.7566659999999992
Ba Li Si Cl O
12 4 8 2 30
direct
   0.0000000000000000    0.0000000000000000    0.0000000000000000 Ba
   0.0000000000000000    0.0000000000000000    0.5000000000000000 Ba
   0.0000000000000000    0.0000000000000000    0.8526550000000001 Ba
   0.0000000000000000    0.0000000000000000    0.6473449999999999 Ba
   0.0000000000000000    0.0000000000000000    0.3526550000000000 Ba
   0.0000000000000000    0.0000000000000000    0.1473450000000000 Ba
   0.6666670000000000    0.3333330000000000    0.9154920000000000 Ba
   0.6666670000000000    0.3333330000000000    0.5845080000000000 Ba
   0.3333330000000000    0.6666670000000000    0.4154920000000000 Ba
   0.3333330000000000    0.6666670000000000    0.0845080000000000 Ba
   0.3333330000000000    0.6666670000000000    0.7500000000000000 Ba
   0.6666670000000000    0.3333330000000000    0.2500000000000000 Ba
   0.3333330000000000    0.6666670000000000    0.8541320000000000 Li
   0.3333330000000000    0.6666670000000000    0.6458680000000000 Li
   0.6666670000000000    0.3333330000000000    0.3541320000000000 Li
   0.6666670000000000    0.3333330000000000    0.1458680000000000 Li
   0.3333330000000000    0.6666670000000000    0.9439680000000000 Si
   0.3333330000000000    0.6666670000000000    0.5560320000000000 Si
   0.6666670000000000    0.3333330000000000    0.4439680000000000 Si
   0.6666670000000000    0.3333330000000000    0.0560320000000000 Si
   0.6666670000000000    0.3333330000000000    0.8063620000000000 Si
   0.6666670000000000    0.3333330000000000    0.6936380000000000 Si
   0.3333330000000000    0.6666670000000000    0.3063620000000000 Si
   0.3333330000000000    0.6666670000000000    0.1936380000000000 Si
   0.0000000000000000    0.0000000000000000    0.7500000000000000 Cl
   0.0000000000000000    0.0000000000000000    0.2500000000000000 Cl
   0.5125940000000000    0.0251870000000000    0.8258150000000000 O
   0.9748130000000000    0.4874060000000000    0.8258150000000000 O
   0.5125940000000000    0.4874060000000000    0.8258150000000000 O
   0.5125940000000000    0.0251870000000000    0.6741850000000000 O
   0.9748130000000000    0.4874060000000000    0.6741850000000000 O
   0.5125940000000000    0.4874060000000000    0.6741850000000000 O
   0.0251870000000000    0.5125940000000000    0.3258150000000000 O
   0.4874060000000000    0.9748130000000000    0.3258150000000000 O
   0.4874060000000000    0.5125940000000000    0.3258150000000000 O
   0.0251870000000000    0.5125940000000000    0.1741850000000000 O
   0.4874060000000000    0.9748130000000000    0.1741850000000000 O
   0.4874060000000000    0.5125940000000000    0.1741850000000000 O
   0.6417990000000000    0.8209000000000000    0.9239030000000000 O
   0.1791000000000000    0.8209000000000000    0.9239030000000000 O
   0.1791000000000000    0.3582010000000000    0.9239030000000000 O
   0.6417990000000000    0.8209000000000000    0.5760970000000000 O
   0.1791000000000000    0.8209000000000000    0.5760970000000000 O
   0.1791000000000000    0.3582010000000000    0.5760970000000000 O
   0.8209000000000000    0.6417990000000000    0.4239030000000000 O
   0.8209000000000000    0.1791000000000000    0.4239030000000000 O
   0.3582010000000000    0.1791000000000000    0.4239030000000000 O
   0.8209000000000000    0.6417990000000000    0.0760970000000000 O
   0.8209000000000000    0.1791000000000000    0.0760970000000000 O
   0.3582010000000000    0.1791000000000000    0.0760970000000000 O
   0.6666670000000000    0.3333330000000000    0.7500000000000000 O
   0.3333330000000000    0.6666670000000000    0.2500000000000000 O
   0.3333330000000000    0.6666670000000000    0.9989060000000000 O
   0.3333330000000000    0.6666670000000000    0.5010940000000000 O
   0.6666670000000000    0.3333330000000000    0.4989060000000000 O
   0.6666670000000000    0.3333330000000000    0.0010940000000000 O
