ALGO = Fast
EDIFF = 0.0058000000000000005
ENCUT = 520
IBRION = 2
ISIF = 3
ISMEAR = -5
ISPIN = 2
LASPH = True
LMAXMIX = 6
LORBIT = 11
LREAL = Auto
LWAVE = False
MAGMOM = 12*0.0 8*0.001 8*0.0 4*0.881 2*0.985 4*0.981 8*0.0 1*0.001 2*0.002 1*0.001 1*0.0 2*0.001 7*0.0 8*-0.003 8*-0.004 4*0.0 8*-0.009 2*-0.007 1*0.002 2*0.003 1*0.002 1*-0.008 2*-0.009 1*-0.008 2*-0.004 1*-0.003 2*-0.004 1*-0.003 4*-0.004 2*-0.016 2*-0.017 4*-0.002
NELM = 100
NSW = 99
PREC = Accurate
SIGMA = 0.05
