ALGO = Fast
EDIFF = 0.0013000000000000002
ENCUT = 520
IBRION = 2
ISIF = 3
ISMEAR = -5
ISPIN = 2
LASPH = True
LMAXMIX = 6
LORBIT = 11
LREAL = Auto
LWAVE = False
MAGMOM = 8*-0.0 2*-0.004 2*0.0 2*-0.001 1*-0.006 2*-0.002 1*-0.005 2*-0.003 1*-0.005 2*-0.003 1*-0.007 2*-0.001
NELM = 100
NSW = 99
PREC = Accurate
SIGMA = 0.05
