Li6 Si2 Bi2 B2 O14
1.0
   6.8837409999999997    0.0000000000000000    0.0000000000000000
   0.0000000000000000    5.1355079999999997    0.0000000000000000
   0.0000000000000000    0.6534830000000000    8.8374559999999995
Li Si Bi B O
6 2 2 2 14
direct
   0.7500000000000000    0.2557090000000000    0.9402530000000000 Li
   0.9522410000000000    0.7520430000000000    0.7520460000000000 Li
   0.5477590000000000    0.7520430000000000    0.7520460000000000 Li
   0.4522410000000000    0.2479570000000000    0.2479540000000000 Li
   0.0477590000000000    0.2479570000000000    0.2479540000000000 Li
   0.2500000000000000    0.7442910000000000    0.0597470000000000 Li
   0.7500000000000000    0.2677630000000000    0.5940830000000000 Si
   0.2500000000000000    0.7322370000000000    0.4059170000000000 Si
   0.2500000000000000    0.2152550000000000    0.6652630000000000 Bi
   0.7500000000000000    0.7847450000000000    0.3347370000000000 Bi
   0.2500000000000000    0.2948340000000000    0.9623180000000000 B
   0.7500000000000000    0.7051660000000000    0.0376820000000000 B
   0.7500000000000000    0.6379080000000000    0.8916630000000000 O
   0.2500000000000000    0.0436230000000000    0.9148370000000000 O
   0.2500000000000000    0.5012560000000000    0.8473460000000000 O
   0.9313669999999999    0.1446010000000000    0.6984100000000000 O
   0.5686330000000001    0.1446010000000000    0.6984100000000000 O
   0.7500000000000000    0.5912640000000000    0.5839430000000000 O
   0.2500000000000000    0.8121480000000000    0.5821120000000000 O
   0.7500000000000000    0.1878520000000000    0.4178880000000000 O
   0.2500000000000000    0.4087360000000000    0.4160570000000000 O
   0.4313670000000000    0.8553990000000000    0.3015900000000000 O
   0.0686330000000000    0.8553990000000000    0.3015900000000000 O
   0.7500000000000000    0.4987440000000000    0.1526540000000000 O
   0.7500000000000000    0.9563770000000000    0.0851630000000000 O
   0.2500000000000000    0.3620920000000000    0.1083370000000000 O
