Li2 As2 H12 O6 F12
1.0
   4.2713080000000003   -7.3981219999999999    0.0000000000000000
   4.2713080000000003    7.3981219999999999    0.0000000000000000
   0.0000000000000000    0.0000000000000000    5.5926239999999998
Li As H O F
2 2 12 6 12
direct
   0.0000000000000000    0.0000000000000000    0.8033640000000000 Li
   0.0000000000000000    0.0000000000000000    0.3033640000000000 Li
   0.3333330000000000    0.6666670000000000    0.4294340000000000 As
   0.6666670000000000    0.3333330000000000    0.9294340000000000 As
   0.9405650000000000    0.2408920000000000    0.5585930000000000 H
   0.3003270000000000    0.2408920000000000    0.5585930000000000 H
   0.3003270000000000    0.0594350000000000    0.5585930000000000 H
   0.0594350000000000    0.7591080000000000    0.0585930000000000 H
   0.7591080000000000    0.6996730000000000    0.5585930000000000 H
   0.6996730000000000    0.7591080000000000    0.0585930000000000 H
   0.7591080000000000    0.0594350000000000    0.5585930000000000 H
   0.2408920000000000    0.9405650000000000    0.0585930000000000 H
   0.2408920000000000    0.3003270000000000    0.0585930000000000 H
   0.6996730000000000    0.9405650000000000    0.0585930000000000 H
   0.0594350000000000    0.3003270000000000    0.0585930000000000 H
   0.9405650000000000    0.6996730000000000    0.5585930000000000 H
   0.7798240000000000    0.8899120000000000    0.0528630000000000 O
   0.1100880000000000    0.2201760000000000    0.0528630000000000 O
   0.2201760000000000    0.1100880000000000    0.5528630000000000 O
   0.8899120000000000    0.7798240000000000    0.5528630000000000 O
   0.8899120000000000    0.1100880000000000    0.5528630000000000 O
   0.1100880000000000    0.8899120000000000    0.0528630000000000 O
   0.4314580000000000    0.5685420000000000    0.2453020000000000 F
   0.7650890000000000    0.5301770000000000    0.1106500000000000 F
   0.5685420000000000    0.1370840000000000    0.7453020000000000 F
   0.5685420000000000    0.4314580000000000    0.7453020000000000 F
   0.2349110000000000    0.7650890000000000    0.6106500000000000 F
   0.4698230000000000    0.2349110000000000    0.1106500000000000 F
   0.7650890000000000    0.2349110000000000    0.1106500000000000 F
   0.5301770000000000    0.7650890000000000    0.6106500000000000 F
   0.4314580000000000    0.8629160000000000    0.2453020000000000 F
   0.8629160000000000    0.4314580000000000    0.7453020000000000 F
   0.1370840000000000    0.5685420000000000    0.2453020000000000 F
   0.2349110000000000    0.4698230000000000    0.6106500000000000 F
