pymatgen with grid density = 739 / number of atoms
0
Gamma
3 3 4
