pymatgen with grid density = 1427 / number of atoms
0
Gamma
5 4 1
