Li6 Al6 Ge6 O24
1.0
   5.0858670000000004   -6.9781810000000002    0.0000000000000000
   5.0858670000000004    6.9781810000000002    0.0000000000000000
  -4.4887090000000001    0.0000000000000000    7.3764859999999999
Li Al Ge O
6 6 6 24
direct
   0.2395830000000000    0.4684880000000000    0.0712800000000000 Li
   0.4684880000000000    0.0712800000000000    0.2395830000000000 Li
   0.0712800000000000    0.2395830000000000    0.4684880000000000 Li
   0.7604170000000000    0.5315120000000000    0.9287200000000000 Li
   0.5315120000000000    0.9287200000000000    0.7604170000000000 Li
   0.9287200000000000    0.7604170000000000    0.5315120000000000 Li
   0.5681100000000000    0.7890930000000000    0.3844040000000000 Al
   0.3844040000000000    0.5681100000000000    0.7890930000000000 Al
   0.4318900000000000    0.2109070000000000    0.6155960000000000 Al
   0.2109070000000000    0.6155960000000000    0.4318900000000000 Al
   0.6155960000000000    0.4318900000000000    0.2109070000000000 Al
   0.7890930000000000    0.3844040000000000    0.5681100000000000 Al
   0.1332210000000000    0.7204560000000000    0.8935250000000000 Ge
   0.7204560000000000    0.8935250000000000    0.1332210000000000 Ge
   0.1064750000000000    0.8667790000000000    0.2795440000000000 Ge
   0.8667790000000000    0.2795440000000000    0.1064750000000000 Ge
   0.2795440000000000    0.1064750000000000    0.8667790000000000 Ge
   0.8935250000000000    0.1332210000000000    0.7204560000000000 Ge
   0.3448400000000000    0.6849110000000000    0.6596790000000000 O
   0.3792870000000000    0.3227800000000000    0.0481450000000000 O
   0.0481450000000000    0.3792870000000000    0.3227800000000000 O
   0.3227800000000000    0.0481450000000000    0.3792870000000000 O
   0.6207130000000000    0.6772200000000000    0.9518550000000000 O
   0.9518550000000000    0.6207130000000000    0.6772200000000000 O
   0.6772200000000000    0.9518550000000000    0.6207130000000000 O
   0.6849110000000000    0.6596790000000000    0.3448400000000000 O
   0.7397920000000000    0.4010810000000000    0.0791060000000000 O
   0.6596790000000000    0.3448400000000000    0.6849110000000000 O
   0.3150890000000000    0.3403210000000000    0.6551600000000000 O
   0.6551600000000000    0.3150890000000000    0.3403210000000000 O
   0.2602080000000000    0.5989190000000000    0.9208940000000000 O
   0.5989190000000000    0.9208940000000000    0.2602080000000000 O
   0.9208940000000000    0.2602080000000000    0.5989190000000000 O
   0.9731240000000000    0.2797290000000000    0.9550490000000000 O
   0.4010810000000000    0.0791060000000000    0.7397920000000000 O
   0.0791060000000000    0.7397920000000000    0.4010810000000000 O
   0.0449510000000000    0.0268760000000000    0.7202710000000000 O
   0.2797290000000000    0.9550490000000000    0.9731240000000000 O
   0.9550490000000000    0.9731240000000000    0.2797290000000000 O
   0.0268760000000000    0.7202710000000000    0.0449510000000000 O
   0.7202710000000000    0.0449510000000000    0.0268760000000000 O
   0.3403210000000000    0.6551600000000000    0.3150890000000000 O
