Li4 Sm2 P2 C2 O14
1.0
   6.8780869999999998    0.0000000000000000    0.0000000000000000
   0.0000000000000000    4.9721820000000001    0.0000000000000000
   0.0000000000000000    0.4798840000000000    9.2469129999999993
Li Sm P C O
4 2 2 2 14
direct
   0.5201700000000000    0.7981220000000000    0.8043150000000000 Li
   0.9798300000000000    0.7981220000000000    0.8043150000000000 Li
   0.4798300000000000    0.2018780000000000    0.1956850000000000 Li
   0.0201700000000000    0.2018780000000000    0.1956850000000000 Li
   0.2500000000000000    0.2568560000000000    0.6270840000000000 Sm
   0.7500000000000000    0.7431440000000000    0.3729160000000000 Sm
   0.7500000000000000    0.2656320000000000    0.5994540000000000 P
   0.2500000000000000    0.7343680000000000    0.4005460000000000 P
   0.2500000000000000    0.2576460000000000    0.9315510000000000 C
   0.7500000000000000    0.7423540000000000    0.0684490000000000 C
   0.7500000000000000    0.7286180000000000    0.9315390000000000 O
   0.2500000000000000    0.0279160000000000    0.8679330000000000 O
   0.2500000000000000    0.4764770000000000    0.8441590000000000 O
   0.9329120000000000    0.1271280000000000    0.6649740000000000 O
   0.5670880000000000    0.1271280000000000    0.6649740000000000 O
   0.2500000000000000    0.7603410000000000    0.5695850000000000 O
   0.7500000000000000    0.5735270000000000    0.6203160000000000 O
   0.2500000000000000    0.4264730000000000    0.3796840000000000 O
   0.7500000000000000    0.2396590000000000    0.4304150000000000 O
   0.4329120000000000    0.8728720000000000    0.3350260000000000 O
   0.0670880000000000    0.8728720000000000    0.3350260000000000 O
   0.7500000000000000    0.5235230000000000    0.1558410000000000 O
   0.7500000000000000    0.9720839999999999    0.1320670000000000 O
   0.2500000000000000    0.2713820000000000    0.0684610000000000 O
