Li4 Sn2 H28 Se6 O14
1.0
   7.2675395900000002    0.0213132800000000   -0.0117612500000000
   2.4687967000000000    9.1065468400000000   -0.0462941100000000
   3.2625203699999998    1.4548647600000000    9.8393546000000001
Li Sn H Se O
4 2 28 6 14
direct
   0.6918502100000000    0.0814947700000000    0.2191026400000000 Li
   0.3081497900000000    0.9185052300000000    0.7808973600000000 Li
   0.0607588400000000    0.2603570900000000    0.1299238300000000 Li
   0.9392411600000000    0.7396429100000000    0.8700761700000000 Li
   0.5967826100000000    0.3766261200000000    0.6231818200000000 Sn
   0.4032173900000000    0.6233738800000000    0.3768181800000000 Sn
   0.7985216000000001    0.2239918300000000    0.3433428800000000 H
   0.2014784000000000    0.7760081700000000    0.6566571200000000 H
   0.2313173200000000    0.4474691700000000    0.1916409400000000 H
   0.7686826800000000    0.5525308300000000    0.8083590600000000 H
   0.3680050000000000    0.0270215400000000    0.4014761800000000 H
   0.6319950000000000    0.9729784600000000    0.5985238200000000 H
   0.8977533599999999    0.8182705000000000    0.1625197800000000 H
   0.1022466400000000    0.1817295000000000    0.8374802200000000 H
   0.6929987900000000    0.0543000800000000    0.9779522200000000 H
   0.3070012100000000    0.9456999200000000    0.0220477800000000 H
   0.2275685200000000    0.0106917700000000    0.2262173300000000 H
   0.7724314799999999    0.9893082300000000    0.7737826700000000 H
   0.0010758900000000    0.4119156000000000    0.8992508900000000 H
   0.9989241100000000    0.5880844000000000    0.1007491100000000 H
   0.6053044300000000    0.2226548400000000    0.9920999600000000 H
   0.3946955700000000    0.7773451600000000    0.0079000400000000 H
   0.3937790400000000    0.1813855400000000    0.4167592100000000 H
   0.6062209600000000    0.8186144600000000    0.5832407900000000 H
   0.7032789500000000    0.3359507800000000    0.2318037300000000 H
   0.2967210500000000    0.6640492200000000    0.7681962700000000 H
   0.2178645700000000    0.3525011200000000    0.9049174000000000 H
   0.7821354300000000    0.6474988800000000    0.0950826000000000 H
   0.0175385900000000    0.4470028800000000    0.2891633100000000 H
   0.9824614100000000    0.5529971200000000    0.7108366900000000 H
   0.3876425800000000    0.0907534900000000    0.1174327300000000 H
   0.6123574200000000    0.9092465100000000    0.8825672700000000 H
   0.9531947100000000    0.8608360800000000    0.2817347500000000 H
   0.0468052900000000    0.1391639200000000    0.7182652500000000 H
   0.7210579900000000    0.5982134800000000    0.4534728400000000 Se
   0.2789420100000000    0.4017865200000000    0.5465271600000000 Se
   0.4962267900000000    0.4470403000000000    0.8554811300000000 Se
   0.5037732100000000    0.5529597000000001    0.1445188700000000 Se
   0.8433398300000000    0.1471545300000000    0.5644200900000000 Se
   0.1566601700000000    0.8528454700000000    0.4355799100000000 Se
   0.7987678499999999    0.2420558600000000    0.2468281800000000 O
   0.2012321500000000    0.7579441400000000    0.7531718200000000 O
   0.6286148100000000    0.1238639900000000    0.0454263400000000 O
   0.3713851900000000    0.8761360100000000    0.9545736600000000 O
   0.4488234000000000    0.1014898000000000    0.3611957500000000 O
   0.5511766000000000    0.8985102000000000    0.6388042500000000 O
   0.8793730600000000    0.8989541700000000    0.2136928100000000 O
   0.1206269400000000    0.1010458300000000    0.7863071900000000 O
   0.1028977600000000    0.4244242500000000    0.2000535300000000 O
   0.8971022400000001    0.5755757500000001    0.7999464700000000 O
   0.0875475100000000    0.3244383300000000    0.9363168600000000 O
   0.9124524899999999    0.6755616700000000    0.0636831400000000 O
   0.2530208400000000    0.0728701300000000    0.1368374000000000 O
   0.7469791600000000    0.9271298700000000    0.8631626000000000 O
