Li12 B20 H8 O40
1.0
   6.9409080000000003    0.0000000000000000    0.0000000000000000
   0.0000000000000000    6.9409080000000003    0.0000000000000000
   0.0000000000000000    0.0000000000000000   14.6952669999999994
Li B H O
12 20 8 40
direct
   0.3648310000000000    0.3518070000000000    0.0929390000000000 Li
   0.6351690000000000    0.6481930000000000    0.5929390000000000 Li
   0.8518070000000000    0.1351690000000000    0.3429390000000000 Li
   0.1481930000000000    0.8648310000000000    0.8429390000000000 Li
   0.6481930000000000    0.6351690000000000    0.4070610000000000 Li
   0.3518070000000000    0.3648310000000000    0.9070610000000000 Li
   0.1351690000000000    0.8518070000000000    0.6570610000000000 Li
   0.8648310000000000    0.1481930000000000    0.1570610000000000 Li
   0.3056540000000000    0.6943460000000000    0.2500000000000000 Li
   0.6943460000000000    0.3056540000000000    0.7500000000000000 Li
   0.1943460000000000    0.1943460000000000    0.5000000000000000 Li
   0.8056540000000000    0.8056540000000000    0.0000000000000000 Li
   0.2568380000000000    0.9973580000000000    0.1422510000000000 B
   0.7431620000000000    0.0026420000000000    0.6422510000000000 B
   0.4973580000000000    0.2431620000000000    0.3922510000000000 B
   0.5026420000000000    0.7568380000000000    0.8922510000000000 B
   0.0026420000000000    0.7431620000000000    0.3577490000000000 B
   0.9973580000000000    0.2568380000000000    0.8577490000000000 B
   0.2431620000000000    0.4973580000000000    0.6077490000000000 B
   0.7568380000000000    0.5026420000000000    0.1077490000000000 B
   0.2570460000000000    0.2389560000000000    0.2721600000000000 B
   0.7429540000000000    0.7610440000000001    0.7721600000000000 B
   0.7389559999999999    0.2429540000000000    0.5221600000000000 B
   0.2610440000000000    0.7570460000000000    0.0221600000000000 B
   0.7610440000000001    0.7429540000000000    0.2278400000000000 B
   0.2389560000000000    0.2570460000000000    0.7278400000000000 B
   0.2429540000000000    0.7389559999999999    0.4778400000000000 B
   0.7570460000000000    0.2610440000000000    0.9778400000000000 B
   0.5637080000000000    0.4362920000000000    0.2500000000000000 B
   0.4362920000000000    0.5637080000000000    0.7500000000000000 B
   0.9362920000000000    0.9362920000000000    0.5000000000000000 B
   0.0637080000000000    0.0637080000000000    0.0000000000000000 B
   0.0149470000000000    0.4015830000000000    0.2661040000000000 H
   0.9850530000000000    0.5984170000000000    0.7661040000000000 H
   0.9015830000000000    0.4850530000000000    0.5161040000000000 H
   0.0984170000000000    0.5149470000000000    0.0161040000000000 H
   0.5984170000000000    0.9850530000000000    0.2338960000000000 H
   0.4015830000000000    0.0149470000000000    0.7338960000000000 H
   0.4850530000000000    0.9015830000000000    0.4838960000000000 H
   0.5149470000000000    0.0984170000000000    0.9838960000000000 H
   0.2809250000000000    0.8074980000000000    0.1198780000000000 O
   0.7190750000000000    0.1925020000000000    0.6198780000000000 O
   0.3074980000000000    0.2190750000000000    0.3698780000000000 O
   0.6925020000000000    0.7809250000000000    0.8698780000000000 O
   0.1925020000000000    0.7190750000000000    0.3801220000000000 O
   0.8074980000000000    0.2809250000000000    0.8801220000000000 O
   0.2190750000000000    0.3074980000000000    0.6301220000000000 O
   0.7809250000000000    0.6925020000000000    0.1301220000000000 O
   0.3576770000000000    0.4045490000000000    0.2310130000000000 O
   0.6423230000000000    0.5954510000000000    0.7310130000000000 O
   0.9045490000000000    0.1423230000000000    0.4810130000000000 O
   0.0954510000000000    0.8576770000000000    0.9810130000000000 O
   0.5954510000000000    0.6423230000000000    0.2689870000000000 O
   0.4045490000000000    0.3576770000000000    0.7689870000000000 O
   0.1423230000000000    0.9045490000000000    0.5189870000000000 O
   0.8576770000000000    0.0954510000000000    0.0189870000000000 O
   0.6761920000000000    0.3713200000000000    0.1680260000000000 O
   0.3238080000000000    0.6286800000000000    0.6680260000000000 O
   0.8713200000000000    0.8238080000000000    0.4180260000000000 O
   0.1286800000000000    0.1761920000000000    0.9180260000000000 O
   0.6286800000000000    0.3238080000000000    0.3319740000000000 O
   0.3713200000000000    0.6761920000000000    0.8319740000000000 O
   0.8238080000000000    0.8713200000000000    0.5819740000000000 O
   0.1761920000000000    0.1286800000000000    0.0819740000000000 O
   0.3155380000000000    0.0533120000000000    0.2275530000000000 O
   0.6844620000000000    0.9466880000000000    0.7275530000000000 O
   0.5533120000000000    0.1844620000000000    0.4775530000000000 O
   0.4466880000000000    0.8155380000000000    0.9775530000000000 O
   0.9466880000000000    0.6844620000000000    0.2724470000000000 O
   0.0533120000000000    0.3155380000000000    0.7724470000000000 O
   0.1844620000000000    0.5533120000000000    0.5224470000000000 O
   0.8155380000000000    0.4466880000000000    0.0224470000000000 O
   0.0458150000000000    0.2630140000000000    0.2624430000000000 O
   0.9541849999999999    0.7369860000000000    0.7624430000000000 O
   0.7630140000000000    0.4541850000000000    0.5124430000000000 O
   0.2369860000000000    0.5458150000000001    0.0124430000000000 O
   0.7369860000000000    0.9541849999999999    0.2375570000000000 O
   0.2630140000000000    0.0458150000000000    0.7375570000000000 O
   0.4541850000000000    0.7630140000000000    0.4875570000000000 O
   0.5458150000000001    0.2369860000000000    0.9875570000000000 O
