ALGO = Fast
EDIFF = 0.0046
ENCUT = 520
IBRION = 2
ISIF = 3
ISMEAR = -5
ISPIN = 2
LASPH = True
LMAXMIX = 6
LORBIT = 11
LREAL = Auto
LWAVE = False
MAGMOM = 12*0.0 2*0.001 1*0.002 1*0.001 1*0.002 1*0.001 16*0.0 2*0.001 1*0.002 1*0.0 1*0.001 2*0.0 2*0.001 2*0.0 5*0.001 1*0.0 4*0.001 2*0.002 2*0.001 1*0.0 1*0.003 1*0.0 1*0.001 2*0.0 1*0.003 1*0.001 1*0.0 1*0.001 2*0.0 1*0.001 1*0.0 2*0.001 1*0.002 3*0.0 2*0.001 2*0.002 1*0.005 1*0.012 2*0.003 1*0.001 1*0.005 1*0.001 1*0.0 1*0.012
NELM = 100
NSW = 99
PREC = Accurate
SIGMA = 0.05
