pymatgen with grid density = 1100 / number of atoms
0
Gamma
2 2 1
