Li12 Bi6 P16 O58
1.0
   5.1756149999999996    8.9833119999999997    0.0000000000000000
  -5.1756149999999996    8.9833119999999997    0.0000000000000000
   0.0000000000000000    0.1576100000000000   14.2822329999999997
Li Bi P O
12 6 16 58
direct
   0.6905760000000000    0.0894220000000000    0.4436570000000000 Li
   0.3154470000000000    0.7812440000000000    0.0612540000000000 Li
   0.3109590000000000    0.9103300000000000    0.5517490000000000 Li
   0.7812440000000000    0.3154470000000000    0.5612540000000000 Li
   0.9103300000000000    0.3109590000000000    0.0517490000000000 Li
   0.0893700000000000    0.2180080000000000    0.4422230000000000 Li
   0.7901810000000000    0.9200090000000000    0.0537750000000000 Li
   0.3379500000000000    0.3371990000000000    0.1229310000000000 Li
   0.3371990000000000    0.3379500000000000    0.6229310000000000 Li
   0.0894220000000000    0.6905760000000000    0.9436570000000000 Li
   0.9200090000000000    0.7901810000000000    0.5537750000000000 Li
   0.2180080000000000    0.0893700000000000    0.9422230000000000 Li
   0.4312320000000000    0.5700420000000000    0.2593840000000000 Bi
   0.5700420000000000    0.4312320000000000    0.7593839999999999 Bi
   0.4342650000000000    0.9934710000000000    0.7526620000000001 Bi
   0.5721900000000000    0.9944030000000000    0.2503740000000000 Bi
   0.9934710000000000    0.4342650000000000    0.2526620000000000 Bi
   0.9944030000000000    0.5721900000000000    0.7503740000000000 Bi
   0.0939820000000000    0.2300630000000000    0.6538910000000000 P
   0.9193450000000000    0.3088940000000000    0.8399860000000000 P
   0.6682630000000001    0.6653210000000001    0.6084300000000000 P
   0.6653210000000001    0.6682630000000001    0.1084300000000000 P
   0.7699279999999999    0.3069850000000000    0.3488220000000000 P
   0.3088940000000000    0.9193450000000000    0.3399860000000000 P
   0.6851540000000000    0.2291650000000000    0.1616070000000000 P
   0.6824300000000000    0.0904500000000000    0.6569880000000000 P
   0.2291650000000000    0.6851540000000000    0.6616069999999999 P
   0.3322260000000000    0.3257230000000000    0.3882980000000000 P
   0.3257230000000000    0.3322260000000000    0.8882980000000000 P
   0.0904500000000000    0.6824300000000000    0.1569880000000000 P
   0.9177330000000000    0.7713870000000000    0.3438100000000000 P
   0.2300630000000000    0.0939820000000000    0.1538910000000000 P
   0.7713870000000000    0.9177330000000000    0.8438099999999999 P
   0.3069850000000000    0.7699279999999999    0.8488220000000000 P
   0.8734210000000000    0.6521950000000000    0.3267590000000000 O
   0.4716990000000000    0.6549750000000000    0.8291070000000000 O
   0.2911520000000000    0.9268470000000000    0.8477640000000000 O
   0.2617270000000000    0.9927940000000000    0.0708760000000000 O
   0.2939370000000000    0.7790990000000000    0.3440820000000000 O
   0.2586330000000000    0.7699470000000000    0.5884740000000001 O
   0.7631540000000000    0.2087390000000000    0.2641020000000000 O
   0.7462230000000000    0.2438090000000000    0.4390090000000000 O
   0.6869360000000000    0.2373120000000000    0.6509730000000000 O
   0.7760190000000000    0.0052680000000000    0.7493250000000000 O
   0.7533069999999999    0.0060720000000000    0.9297879999999999 O
   0.6917460000000000    0.0774540000000000    0.1482070000000000 O
   0.5177230000000000    0.3495380000000000    0.1735560000000000 O
   0.4692690000000000    0.3168900000000000    0.8424520000000000 O
   0.2438090000000000    0.7462230000000000    0.9390090000000000 O
   0.3495380000000000    0.5177230000000000    0.6735560000000000 O
   0.2087390000000000    0.7631540000000000    0.7641019999999999 O
   0.5170990000000000    0.1320880000000000    0.6710300000000000 O
   0.4838750000000000    0.1835460000000000    0.3583980000000000 O
   0.2373120000000000    0.6869360000000000    0.1509730000000000 O
   0.3168900000000000    0.4692690000000000    0.3424520000000000 O
   0.3345230000000000    0.3310680000000000    0.4940380000000000 O
   0.3310680000000000    0.3345230000000000    0.9940380000000000 O
   0.1835460000000000    0.4838750000000000    0.8583980000000000 O
   0.0774540000000000    0.6917460000000000    0.6482070000000000 O
   0.3501500000000000    0.1392630000000000    0.1709980000000000 O
   0.3114720000000000    0.1939180000000000    0.8579310000000000 O
   0.0052680000000000    0.7760190000000000    0.2493250000000000 O
   0.1320880000000000    0.5170990000000000    0.1710300000000000 O
   0.0060720000000000    0.7533069999999999    0.4297880000000000 O
   0.9950220000000000    0.7552660000000000    0.0718040000000000 O
   0.1939180000000000    0.3114720000000000    0.3579310000000000 O
   0.9265570000000000    0.7714710000000000    0.8464469999999999 O
   0.1392630000000000    0.3501500000000000    0.6709980000000000 O
   0.2386750000000000    0.0782090000000000    0.6436250000000000 O
   0.7552660000000000    0.9950220000000000    0.5718040000000000 O
   0.2408060000000000    0.0119910000000000    0.4267690000000000 O
   0.7714710000000000    0.9265570000000000    0.3464470000000000 O
   0.2159830000000000    0.0142430000000000    0.2482300000000000 O
   0.6549750000000000    0.4716990000000000    0.3291070000000000 O
   0.0782090000000000    0.2386750000000000    0.1436250000000000 O
   0.8069600000000000    0.6772080000000000    0.6390900000000000 O
   0.0119910000000000    0.2408060000000000    0.9267690000000000 O
   0.9927940000000000    0.2617270000000000    0.5708760000000001 O
   0.0142430000000000    0.2159830000000000    0.7482300000000000 O
   0.8720510000000000    0.4737740000000000    0.8230620000000000 O
   0.6521950000000000    0.8734210000000000    0.8267590000000000 O
   0.6772080000000000    0.8069600000000000    0.1390900000000000 O
   0.9268470000000000    0.2911520000000000    0.3477640000000000 O
   0.8064730000000000    0.5197210000000000    0.1405730000000000 O
   0.6657999999999999    0.6654300000000000    0.5013690000000000 O
   0.5170680000000000    0.6788410000000000    0.1439180000000000 O
   0.6788410000000000    0.5170680000000000    0.6439180000000000 O
   0.7790990000000000    0.2939370000000000    0.8440820000000000 O
   0.5197210000000000    0.8064730000000000    0.6405729999999999 O
   0.4737740000000000    0.8720510000000000    0.3230620000000000 O
   0.7699470000000000    0.2586330000000000    0.0884740000000000 O
   0.6654300000000000    0.6657999999999999    0.0013690000000000 O
