Li4 Ca8 Si8 O26
1.0
  -7.2273829999999997    0.0000000000000000    0.0000000000000000
   1.7561169999999999    8.1252320000000005    0.0000000000000000
  -0.0198270000000000   -3.5667949999999999   -9.9564839999999997
Li Ca Si O
4 8 8 26
direct
   0.2519600000000000    0.4088530000000000    0.4086260000000000 Li
   0.7712510000000000    0.5763270000000000    0.1122010000000000 Li
   0.7480400000000000    0.5911470000000000    0.5913740000000000 Li
   0.2287490000000000    0.4236730000000000    0.8877990000000000 Li
   0.9245910000000001    0.2114040000000000    0.5986500000000000 Ca
   0.9171040000000000    0.1957480000000000    0.9972410000000000 Ca
   0.0754090000000000    0.7885960000000000    0.4013500000000000 Ca
   0.4290950000000000    0.2065860000000000    0.6070890000000000 Ca
   0.0828960000000000    0.8042520000000000    0.0027590000000000 Ca
   0.4301190000000000    0.1975130000000000    0.9944080000000000 Ca
   0.5709050000000000    0.7934140000000000    0.3929110000000000 Ca
   0.5698810000000000    0.8024870000000000    0.0055920000000000 Ca
   0.3620160000000000    0.0934520000000000    0.2804630000000000 Si
   0.2671780000000000    0.5740040000000000    0.1780440000000000 Si
   0.7163760000000000    0.3834430000000000    0.3034300000000000 Si
   0.2836240000000000    0.6165570000000000    0.6965700000000000 Si
   0.7328220000000000    0.4259960000000000    0.8219560000000000 Si
   0.9249670000000000    0.0839430000000000    0.2779970000000000 Si
   0.0750330000000000    0.9160570000000000    0.7220030000000000 Si
   0.6379840000000000    0.9065480000000000    0.7195370000000000 Si
   0.2273280000000000    0.4121760000000000    0.6008160000000000 O
   0.8584740000000000    0.2722390000000000    0.3463920000000000 O
   0.7158180000000000    0.3525890000000000    0.1430430000000000 O
   0.1581290000000000    0.1585330000000000    0.3019040000000000 O
   0.7285350000000000    0.4107850000000000    0.6609760000000000 O
   0.6204660000000000    0.0094430000000000    0.6157730000000000 O
   0.8662740000000000    0.9912160000000000    0.1190780000000000 O
   0.2841820000000000    0.6474110000000000    0.8569570000000000 O
   0.6183930000000000    0.9973290000000000    0.8778830000000000 O
   0.4886990000000000    0.6666000000000000    0.1595380000000000 O
   0.9019310000000000    0.3219490000000000    0.8354780000000001 O
   0.7726720000000000    0.5878240000000000    0.3991840000000000 O
   0.1337260000000000    0.0087840000000000    0.8809220000000000 O
   0.1415260000000000    0.7277610000000000    0.6536080000000000 O
   0.5113010000000000    0.3334000000000000    0.8404620000000000 O
   0.3816070000000000    0.0026710000000000    0.1221170000000000 O
   0.1353130000000000    0.0333050000000000    0.6262030000000000 O
   0.5032860000000000    0.2946980000000000    0.3428130000000000 O
   0.3795340000000000    0.9905570000000000    0.3842270000000000 O
   0.2138890000000000    0.3767780000000000    0.0649800000000000 O
   0.4967140000000000    0.7053020000000000    0.6571870000000000 O
   0.8646870000000000    0.9666950000000000    0.3737970000000000 O
   0.2714650000000000    0.5892150000000000    0.3390240000000000 O
   0.8418710000000000    0.8414670000000000    0.6980960000000000 O
   0.7861110000000000    0.6232220000000001    0.9350200000000000 O
   0.0980690000000000    0.6780510000000000    0.1645220000000000 O
