ALGO = Fast
EDIFF = 0.0014
ENCUT = 520
IBRION = 2
ISIF = 3
ISMEAR = -5
ISPIN = 2
LASPH = True
LORBIT = 11
LREAL = Auto
LWAVE = False
MAGMOM = 2*-0.002 2*-0.003 2*-0.019 2*-0.021 2*1.93 2*1.924 2*0.285 2*0.16 2*0.19 2*0.197 2*0.194 2*0.296 2*0.276 2*0.132
NELM = 100
NSW = 99
PREC = Accurate
SIGMA = 0.05
