Li1 Tb2 P2 O8
1.0
   5.8002539999999998   -0.1371680000000000   -1.6593439999999999
  -3.3999670000000002    4.7012749999999999   -1.6593439999999999
  -0.0054840000000000   -0.0104280000000000    5.9836000000000000
Li Tb P O
1 2 2 8
direct
   0.8586150000000000    0.1413850000000000    0.2500000000000000 Li
   0.1442230000000000    0.8557770000000000    0.2500000000000000 Tb
   0.8771620000000000    0.1228380000000000    0.7500000000000000 Tb
   0.3743020000000000    0.6256980000000000    0.7500000000000000 P
   0.6171219999999999    0.3828780000000000    0.2500000000000000 P
   0.7728410000000000    0.3561140000000000    0.0823460000000000 O
   0.7056000000000000    0.7913130000000000    0.9354490000000000 O
   0.3686300000000000    0.7853329999999999    0.5867450000000000 O
   0.7921470000000000    0.7133000000000000    0.4231960000000000 O
   0.2867000000000000    0.2078530000000000    0.0768040000000000 O
   0.2146670000000000    0.6313700000000000    0.9132550000000000 O
   0.2086870000000000    0.2944000000000000    0.5645510000000000 O
   0.6438860000000000    0.2271590000000000    0.4176540000000000 O
