Li2 Bi3 P9 O28
1.0
   7.1297560000000004    0.0000000000000000    0.0000000000000000
  -2.9432149999999999    9.3923340000000000    0.0000000000000000
  -1.2583709999999999   -4.5963680000000000    8.6711220000000004
Li Bi P O
2 3 9 28
direct
   0.6726940000000000    0.2231570000000000    0.9498630000000000 Li
   0.3273060000000000    0.7768430000000000    0.0501370000000000 Li
   0.0000000000000000    0.5000000000000000    0.5000000000000000 Bi
   0.2483430000000000    0.2649600000000000    0.0376330000000000 Bi
   0.7516570000000000    0.7350400000000000    0.9623670000000000 Bi
   0.1890680000000000    0.0349810000000000    0.2633130000000000 P
   0.7253520000000000    0.5712800000000000    0.2294850000000000 P
   0.7868970000000000    0.0649620000000000    0.2934460000000000 P
   0.3757810000000000    0.6367600000000000    0.3325540000000000 P
   0.5000000000000000    0.0000000000000000    0.5000000000000000 P
   0.2131030000000000    0.9350380000000000    0.7065540000000000 P
   0.6242190000000000    0.3632400000000000    0.6674460000000000 P
   0.8109320000000000    0.9650190000000000    0.7366870000000000 P
   0.2746480000000000    0.4287200000000000    0.7705149999999999 P
   0.1286380000000000    0.8748010000000001    0.1160610000000000 O
   0.6006089999999999    0.3915850000000000    0.1070760000000000 O
   0.2439620000000000    0.5196440000000000    0.1662240000000000 O
   0.6397050000000000    0.9279120000000000    0.1365960000000000 O
   0.7530710000000000    0.6846340000000000    0.1596510000000000 O
   0.2629550000000000    0.1823660000000000    0.2403970000000000 O
   0.8538340000000000    0.2277870000000000    0.2966310000000000 O
   0.4107460000000000    0.8100490000000000    0.3474240000000000 O
   0.9219140000000000    0.5941470000000000    0.3291650000000000 O
   0.3503020000000000    0.0517390000000000    0.3974450000000000 O
   0.9905210000000000    0.0283370000000000    0.3287230000000000 O
   0.5944560000000000    0.6217630000000000    0.3496860000000000 O
   0.3095530000000000    0.6100400000000000    0.4606940000000000 O
   0.7010400000000000    0.0620600000000000    0.4299370000000000 O
   0.6904470000000000    0.3899600000000000    0.5393060000000000 O
   0.2989600000000000    0.9379400000000000    0.5700630000000000 O
   0.0094790000000000    0.9716630000000001    0.6712770000000000 O
   0.4055440000000000    0.3782370000000000    0.6503139999999999 O
   0.0780860000000000    0.4058530000000000    0.6708350000000000 O
   0.6496980000000000    0.9482610000000000    0.6025550000000000 O
   0.1461660000000000    0.7722130000000000    0.7033690000000000 O
   0.5892539999999999    0.1899510000000000    0.6525760000000000 O
   0.2469290000000000    0.3153660000000000    0.8403490000000000 O
   0.7370450000000000    0.8176340000000000    0.7596030000000000 O
   0.7560380000000000    0.4803560000000000    0.8337760000000000 O
   0.3602950000000000    0.0720880000000000    0.8634039999999999 O
   0.8713620000000000    0.1251990000000000    0.8839390000000000 O
   0.3993910000000000    0.6084150000000000    0.8929240000000001 O
