Li2 Bi4 P6 O24
1.0
   7.6167829999999999   -0.0008970000000000    4.3810979999999997
   2.5843680000000000    8.2635349999999992    4.3344259999999997
  -0.0079870000000000   -0.0031050000000000    8.7715259999999997
Li Bi P O
2 4 6 24
direct
   0.6819850000000000    0.1216540000000000    0.2579430000000000 Li
   0.3180160000000000    0.8783480000000000    0.7420570000000000 Li
   0.1356940000000000    0.5647970000000000    0.1481400000000000 Bi
   0.3389530000000000    0.9665620000000000    0.3372870000000000 Bi
   0.6610430000000000    0.0334370000000000    0.6627160000000000 Bi
   0.8643050000000000    0.4352090000000000    0.8518559999999999 Bi
   0.2650350000000000    0.2356810000000000    0.5485240000000000 P
   0.0543680000000000    0.7587800000000000    0.7387180000000000 P
   0.4533250000000000    0.7539560000000000    0.0468600000000000 P
   0.5466760000000001    0.2460420000000000    0.9531460000000000 P
   0.9456329999999999    0.2412160000000000    0.2612840000000000 P
   0.7349640000000000    0.7643230000000000    0.4514690000000000 P
   0.1388900000000000    0.1094980000000000    0.2080020000000000 O
   0.2283030000000000    0.0860250000000000    0.5539860000000000 O
   0.2191190000000000    0.3863400000000000    0.3983680000000000 O
   0.1532530000000000    0.2498200000000000    0.7433270000000000 O
   0.5321380000000000    0.1155280000000000    0.1500920000000000 O
   0.2570800000000000    0.7459220000000000    0.1312850000000000 O
   0.0342340000000000    0.5950970000000000    0.7861780000000000 O
   0.4787530000000000    0.1884040000000000    0.5003190000000000 O
   0.1652520000000000    0.8098990000000000    0.5267030000000000 O
   0.6005900000000000    0.5931149999999999    0.0273680000000000 O
   0.1510570000000000    0.7537960000000000    0.8482820000000000 O
   0.4948390000000000    0.8136460000000000    0.1582470000000000 O
   0.5051620000000000    0.1863540000000000    0.8417570000000000 O
   0.8489460000000000    0.2462080000000000    0.1517140000000000 O
   0.3994130000000000    0.4068870000000000    0.9726340000000000 O
   0.8347470000000000    0.1900970000000000    0.4732980000000000 O
   0.5212450000000000    0.8115960000000000    0.4996800000000000 O
   0.9657750000000001    0.4048950000000000    0.2138310000000000 O
   0.7429200000000000    0.2540730000000000    0.8687260000000000 O
   0.4678550000000000    0.8844720000000000    0.8499150000000000 O
   0.8467430000000000    0.7501910000000001    0.2566610000000000 O
   0.7808900000000000    0.6136620000000000    0.6016180000000000 O
   0.7716930000000000    0.9139790000000000    0.4460110000000000 O
   0.8611060000000000    0.8904930000000000    0.7920000000000000 O
