Li4 Tl2 P2 C2 O14
1.0
   6.7118050000000000    0.0000000000000000    0.0000000000000000
   0.0000000000000000    5.0801080000000001    0.0000000000000000
   0.0000000000000000    0.4361300000000000    8.9915570000000002
Li Tl P C O
4 2 2 2 14
direct
   0.9957140000000000    0.7937950000000000    0.7971020000000000 Li
   0.5042860000000000    0.7937950000000000    0.7971020000000000 Li
   0.4957140000000000    0.2062050000000000    0.2028980000000000 Li
   0.0042860000000000    0.2062050000000000    0.2028980000000000 Li
   0.2500000000000000    0.2468580000000000    0.6342150000000000 Tl
   0.7500000000000000    0.7531420000000000    0.3657850000000000 Tl
   0.7500000000000000    0.2639210000000000    0.5901330000000000 P
   0.2500000000000000    0.7360790000000000    0.4098670000000000 P
   0.2500000000000000    0.2598760000000000    0.9401230000000000 C
   0.7500000000000000    0.7401240000000000    0.0598770000000000 C
   0.7500000000000000    0.7091130000000000    0.9201420000000000 O
   0.2500000000000000    0.0289540000000000    0.8821260000000000 O
   0.2500000000000000    0.4702340000000000    0.8452970000000000 O
   0.9321530000000000    0.1440740000000000    0.6737270000000000 O
   0.5678470000000000    0.1440740000000000    0.6737270000000000 O
   0.2500000000000000    0.7983770000000000    0.5777280000000000 O
   0.7500000000000000    0.5733910000000000    0.5949070000000000 O
   0.2500000000000000    0.4266090000000000    0.4050930000000000 O
   0.7500000000000000    0.2016230000000000    0.4222720000000000 O
   0.4321530000000000    0.8559260000000000    0.3262730000000000 O
   0.0678470000000000    0.8559260000000000    0.3262730000000000 O
   0.7500000000000000    0.5297660000000000    0.1547030000000000 O
   0.7500000000000000    0.9710460000000000    0.1178740000000000 O
   0.2500000000000000    0.2908870000000000    0.0798580000000000 O
