Li12 Y8 B12 O36
1.0
  14.0174590000000006    0.0000000000000000    0.0000000000000000
   0.0000000000000000    5.6726489999999998    0.0000000000000000
   0.0000000000000000    3.5597390000000000    8.5027050000000006
Li Y B O
12 8 12 36
direct
   0.3352050000000000    0.9113190000000000    0.0174140000000000 Li
   0.6647950000000000    0.0886810000000000    0.9825860000000000 Li
   0.8352050000000000    0.0886810000000000    0.4825860000000000 Li
   0.1647950000000000    0.9113190000000000    0.5174140000000000 Li
   0.7820830000000000    0.9057480000000000    0.2928470000000000 Li
   0.2179170000000000    0.0942520000000000    0.7071530000000000 Li
   0.2820830000000000    0.0942520000000000    0.2071530000000000 Li
   0.7179170000000000    0.9057480000000000    0.7928470000000000 Li
   0.8946480000000000    0.5601990000000000    0.2916830000000000 Li
   0.1053520000000000    0.4398010000000000    0.7083170000000000 Li
   0.3946480000000000    0.4398010000000000    0.2083170000000000 Li
   0.6053520000000000    0.5601990000000000    0.7916830000000000 Li
   0.6643590000000000    0.4417020000000000    0.1930210000000000 Y
   0.3356410000000000    0.5582980000000000    0.8069790000000000 Y
   0.1643590000000000    0.5582980000000000    0.3069790000000000 Y
   0.8356410000000000    0.4417020000000000    0.6930210000000000 Y
   0.5051190000000000    0.8482470000000000    0.3413310000000000 Y
   0.4948810000000000    0.1517530000000000    0.6586689999999999 Y
   0.0051190000000000    0.1517530000000000    0.1586690000000000 Y
   0.9948810000000000    0.8482470000000000    0.8413310000000001 Y
   0.9836120000000000    0.7638760000000000    0.4851770000000000 B
   0.0163880000000000    0.2361240000000000    0.5148230000000000 B
   0.4836120000000000    0.2361240000000000    0.0148230000000000 B
   0.5163880000000000    0.7638760000000000    0.9851770000000000 B
   0.8370090000000000    0.8894230000000000    0.0269250000000000 B
   0.1629910000000000    0.1105770000000000    0.9730750000000000 B
   0.3370090000000000    0.1105770000000000    0.4730750000000000 B
   0.6629910000000000    0.8894230000000000    0.5269250000000000 B
   0.8247970000000000    0.3915470000000000    0.0210800000000000 B
   0.1752030000000000    0.6084530000000000    0.9789200000000000 B
   0.3247970000000000    0.6084530000000000    0.4789200000000000 B
   0.6752030000000000    0.3915470000000000    0.5210800000000000 B
   0.8966470000000000    0.8114660000000000    0.4135340000000000 O
   0.1033530000000000    0.1885340000000000    0.5864660000000000 O
   0.3966470000000000    0.1885340000000000    0.0864660000000000 O
   0.6033530000000000    0.8114660000000000    0.9135340000000000 O
   0.5920970000000000    0.4595950000000000    0.4311770000000000 O
   0.4079030000000000    0.5404050000000000    0.5688230000000000 O
   0.0920970000000000    0.5404050000000000    0.0688230000000000 O
   0.9079030000000000    0.4595950000000000    0.9311770000000000 O
   0.7556790000000000    0.8132220000000000    0.1170040000000000 O
   0.2443210000000000    0.1867780000000000    0.8829960000000000 O
   0.2556790000000000    0.1867780000000000    0.3829960000000000 O
   0.7443210000000000    0.8132220000000000    0.6170040000000000 O
   0.5655770000000000    0.1859670000000000    0.1064070000000000 O
   0.4344230000000000    0.8140330000000000    0.8935930000000000 O
   0.0655770000000000    0.8140330000000000    0.3935930000000000 O
   0.9344230000000000    0.1859670000000000    0.6064070000000000 O
   0.9273230000000000    0.8463120000000000    0.0931930000000000 O
   0.0726770000000000    0.1536880000000000    0.9068070000000000 O
   0.4273230000000000    0.1536880000000000    0.4068070000000000 O
   0.5726770000000000    0.8463120000000000    0.5931930000000000 O
   0.8326800000000000    0.2884290000000000    0.1836580000000000 O
   0.1673200000000000    0.7115710000000000    0.8163420000000000 O
   0.3326800000000000    0.7115710000000000    0.3163420000000000 O
   0.6673200000000000    0.2884290000000000    0.6836580000000000 O
   0.5118580000000000    0.6633019999999999    0.1486790000000000 O
   0.4881420000000000    0.3366980000000000    0.8513210000000000 O
   0.0118580000000000    0.3366980000000000    0.3513210000000000 O
   0.9881420000000000    0.6633019999999999    0.6486790000000000 O
   0.7621220000000000    0.4186990000000000    0.4472570000000000 O
   0.2378780000000000    0.5813010000000000    0.5527430000000000 O
   0.2621220000000000    0.5813010000000000    0.0527430000000000 O
   0.7378780000000000    0.4186990000000000    0.9472570000000000 O
   0.6656210000000000    0.0062010000000000    0.3638820000000000 O
   0.3343790000000000    0.9937990000000000    0.6361180000000000 O
   0.1656210000000000    0.9937990000000000    0.1361180000000000 O
   0.8343790000000000    0.0062010000000000    0.8638820000000000 O
