Li4 Bi2 P6 O20
1.0
   9.0035349999999994    0.0000000000000000    0.0000000000000000
   0.0000000000000000    5.1093700000000002    0.0000000000000000
   0.0000000000000000    1.5018330000000000   10.1548169999999995
Li Bi P O
4 2 6 20
direct
   0.0767630000000000    0.1757000000000000    0.4225800000000000 Li
   0.4232370000000000    0.1757000000000000    0.4225800000000000 Li
   0.5767630000000000    0.8243000000000000    0.5774200000000000 Li
   0.9232370000000000    0.8243000000000000    0.5774200000000000 Li
   0.0000000000000000    0.0000000000000000    0.0000000000000000 Bi
   0.5000000000000000    0.0000000000000000    0.0000000000000000 Bi
   0.2500000000000000    0.3212090000000000    0.7865430000000000 P
   0.7500000000000000    0.3610440000000000    0.4993180000000000 P
   0.7500000000000000    0.5168360000000000    0.9438590000000000 P
   0.2500000000000000    0.4831640000000000    0.0561410000000000 P
   0.2500000000000000    0.6389560000000000    0.5006820000000000 P
   0.7500000000000000    0.6787910000000000    0.2134570000000000 P
   0.1084660000000000    0.1569500000000000    0.8006660000000000 O
   0.3915340000000000    0.1569500000000000    0.8006660000000000 O
   0.7500000000000000    0.2191250000000000    0.9252710000000000 O
   0.6076530000000000    0.2011210000000000    0.5185590000000000 O
   0.8923470000000000    0.2011210000000000    0.5185590000000000 O
   0.2500000000000000    0.3876290000000000    0.4366010000000000 O
   0.1064900000000000    0.3419590000000000    0.1046550000000000 O
   0.3935100000000000    0.3419590000000000    0.1046550000000000 O
   0.2500000000000000    0.5173759999999999    0.8959470000000000 O
   0.7500000000000000    0.4665930000000000    0.3368320000000000 O
   0.2500000000000000    0.5334070000000000    0.6631680000000000 O
   0.7500000000000000    0.4826240000000000    0.1040530000000000 O
   0.8935100000000000    0.6580410000000000    0.8953449999999999 O
   0.6064900000000000    0.6580410000000000    0.8953449999999999 O
   0.7500000000000000    0.6123710000000000    0.5633990000000000 O
   0.1076530000000000    0.7988790000000000    0.4814410000000000 O
   0.3923470000000000    0.7988790000000000    0.4814410000000000 O
   0.2500000000000000    0.7808750000000000    0.0747290000000000 O
   0.6084660000000000    0.8430500000000000    0.1993340000000000 O
   0.8915340000000000    0.8430500000000000    0.1993340000000000 O
