pymatgen with grid density = 1238 / number of atoms
0
Monkhorst
2 2 2
