Li3 Bi5 P6 O24
1.0
   8.7477280000000004    0.0000000000000000    0.0000000000000000
  -2.9196270000000002    8.3498560000000008    0.0000000000000000
  -2.9916760000000000   -4.0532029999999999    7.2804909999999996
Li Bi P O
3 5 6 24
direct
   0.5051190000000000    0.9736920000000000    0.7746470000000000 Li
   0.9966520000000000    0.2801560000000000    0.4917390000000000 Li
   0.7006480000000000    0.7311580000000000    0.7184430000000001 Li
   0.8337710000000000    0.4908100000000000    0.9893480000000000 Bi
   0.5136560000000000    0.0124410000000000    0.3529270000000000 Bi
   0.3429830000000000    0.5011230000000000    0.9874740000000000 Bi
   0.1440190000000000    0.1613080000000000    0.1631970000000000 Bi
   0.0019350000000000    0.8403000000000000    0.5127770000000000 Bi
   0.7484100000000000    0.8761500000000000    0.1205000000000000 P
   0.2529400000000000    0.6226870000000000    0.3737970000000000 P
   0.1212580000000000    0.7525630000000000    0.8812500000000000 P
   0.6250640000000000    0.3788850000000000    0.2531870000000000 P
   0.3686500000000000    0.2440410000000000    0.6265770000000001 P
   0.8741760000000000    0.1277750000000000    0.7468710000000000 P
   0.9233650000000000    0.0666790000000000    0.2653770000000000 O
   0.9211720000000000    0.6891580000000000    0.8483039999999999 O
   0.3365430000000000    0.1869450000000000    0.4247880000000000 O
   0.8411800000000000    0.1614120000000000    0.5800780000000000 O
   0.7417650000000000    0.1588160000000000    0.8164610000000000 O
   0.2577100000000000    0.9182940000000001    0.0822280000000000 O
   0.0867870000000000    0.6655759999999999    0.3432910000000000 O
   0.3028990000000000    0.6462660000000000    0.2244790000000000 O
   0.5880030000000001    0.8478640000000000    0.1723660000000000 O
   0.1649160000000000    0.4179800000000000    0.3295140000000000 O
   0.1597760000000000    0.8228240000000000    0.7510010000000000 O
   0.8002520000000000    0.7280140000000000    0.1463450000000000 O
   0.4226350000000000    0.7495870000000000    0.5622370000000000 O
   0.5709620000000000    0.4077310000000000    0.7560440000000000 O
   0.6550480000000000    0.3517380000000000    0.0861280000000000 O
   0.1589640000000000    0.5885160000000000    0.8506600000000000 O
   0.4193370000000000    0.3422100000000000    0.1848680000000000 O
   0.2350220000000000    0.3118030000000000    0.6586630000000000 O
   0.7554030000000000    0.5750910000000000    0.4181120000000000 O
   0.8547320000000000    0.9358190000000000    0.6953540000000000 O
   0.6571550000000000    0.2419950000000000    0.3164060000000000 O
   0.0790020000000000    0.2696900000000000    0.9148030000000000 O
   0.6763479999999999    0.8485320000000000    0.9277670000000000 O
   0.3395940000000000    0.0743720000000000    0.6519900000000000 O
