Li8 Sn4 B8 O24
1.0
   6.5074509999999997    0.0000000000000000    0.0000000000000000
   0.0000000000000000    8.1545190000000005    0.0000000000000000
   0.0000000000000000    4.3303240000000001    8.9503029999999999
Li Sn B O
8 4 8 24
direct
   0.9933530000000000    0.5935690000000000    0.5066720000000000 Li
   0.4978970000000000    0.4295690000000000    0.9834540000000001 Li
   0.4765270000000000    0.8055830000000000    0.4534560000000000 Li
   0.5234730000000000    0.8055830000000000    0.9534560000000000 Li
   0.1695100000000000    0.2700180000000000    0.1455100000000000 Li
   0.0066470000000000    0.5935690000000000    0.0066720000000000 Li
   0.8304900000000000    0.2700180000000000    0.6455100000000000 Li
   0.5021030000000000    0.4295690000000000    0.4834540000000000 Li
   0.2035370000000000    0.8227139999999999    0.1718370000000000 Sn
   0.7964630000000000    0.8227139999999999    0.6718370000000000 Sn
   0.7096060000000000    0.1914790000000000    0.3079950000000000 Sn
   0.2903940000000000    0.1914790000000000    0.8079950000000000 Sn
   0.0912790000000000    0.4690060000000000    0.8078720000000000 B
   0.6057900000000001    0.5351080000000000    0.6982750000000000 B
   0.5750830000000000    0.0713280000000000    0.1209340000000000 B
   0.0811770000000000    0.9270389999999999    0.3894390000000000 B
   0.4249170000000000    0.0713280000000000    0.6209340000000000 B
   0.9188229999999999    0.9270389999999999    0.8894390000000000 B
   0.9087210000000000    0.4690060000000000    0.3078720000000000 B
   0.3942100000000000    0.5351080000000000    0.1982750000000000 B
   0.5465449999999999    0.3655730000000000    0.7124530000000000 O
   0.0546160000000000    0.3925030000000000    0.7076620000000000 O
   0.2231460000000000    0.3594140000000000    0.9253169999999999 O
   0.7129290000000000    0.6486630000000000    0.5673220000000000 O
   0.5784049999999999    0.6135389999999999    0.7948470000000000 O
   0.4470580000000000    0.0058650000000000    0.0405950000000000 O
   0.1922580000000000    0.7771479999999999    0.4667570000000000 O
   0.0195730000000000    0.6313080000000000    0.7968229999999999 O
   0.5713850000000000    0.9816770000000000    0.2761380000000000 O
   0.0973460000000000    0.0172320000000000    0.2330130000000000 O
   0.6862590000000000    0.2276230000000000    0.0641770000000000 O
   0.9319070000000000    0.9954710000000000    0.4540350000000000 O
   0.5529420000000000    0.0058650000000000    0.5405950000000000 O
   0.8077420000000000    0.7771479999999999    0.9667570000000000 O
   0.4286150000000000    0.9816770000000000    0.7761380000000000 O
   0.9026540000000000    0.0172320000000000    0.7330130000000000 O
   0.4534550000000000    0.3655730000000000    0.2124530000000000 O
   0.3137410000000000    0.2276230000000000    0.5641770000000000 O
   0.0680930000000000    0.9954710000000000    0.9540350000000000 O
   0.9453840000000000    0.3925030000000000    0.2076620000000000 O
   0.7768540000000000    0.3594140000000000    0.4253170000000000 O
   0.2870710000000000    0.6486630000000000    0.0673220000000000 O
   0.4215950000000000    0.6135389999999999    0.2948470000000000 O
   0.9804270000000000    0.6313080000000000    0.2968230000000000 O
