pymatgen with grid density = 695 / number of atoms
0
Gamma
2 2 1
