pymatgen with grid density = 800 / number of atoms
0
Gamma
3 3 3
