Li1 Nd2 H1 O3
1.0
  -1.7523629999999999    1.8581850000000000    6.3531560000000002
   1.7523629999999999   -1.8581850000000000    6.3531560000000002
   1.7523629999999999    1.8581850000000000   -6.3531560000000002
Li Nd H O
1 2 1 3
direct
   0.0000000000000000    0.0000000000000000    0.0000000000000000 Li
   0.3640450000000000    0.3640450000000000    0.0000000000000000 Nd
   0.6359550000000000    0.6359550000000000    0.0000000000000000 Nd
   0.0000000000000000    0.5000000000000000    0.5000000000000000 H
   0.5000000000000000    0.0000000000000000    0.5000000000000000 O
   0.8235160000000000    0.8235160000000000    0.0000000000000000 O
   0.1764840000000000    0.1764840000000000    0.0000000000000000 O
