Li2 Sn4 S6 O24
1.0
   8.1529199999999999   -4.6039139999999996    0.0000000000000000
   8.1529199999999999    4.6039139999999996    0.0000000000000000
   5.5531129999999997    0.0000000000000000    7.5385049999999998
Li Sn S O
2 4 6 24
direct
   0.0000000000000000    0.0000000000000000    0.0000000000000000 Li
   0.5000000000000000    0.5000000000000000    0.5000000000000000 Li
   0.3530550000000000    0.3530550000000000    0.3530550000000000 Sn
   0.1469450000000000    0.1469450000000000    0.1469450000000000 Sn
   0.6469450000000000    0.6469450000000000    0.6469450000000000 Sn
   0.8530550000000000    0.8530550000000000    0.8530550000000000 Sn
   0.7500000000000000    0.0631640000000000    0.4368360000000000 S
   0.9368360000000000    0.5631640000000000    0.2500000000000000 S
   0.5631640000000000    0.2500000000000000    0.9368360000000000 S
   0.4368360000000000    0.7500000000000000    0.0631640000000000 S
   0.0631640000000000    0.4368360000000000    0.7500000000000000 S
   0.2500000000000000    0.9368360000000000    0.5631640000000000 S
   0.8932000000000000    0.0728510000000000    0.2570770000000000 O
   0.7429230000000000    0.1068000000000000    0.9271490000000000 O
   0.9314680000000000    0.4828520000000000    0.6773000000000000 O
   0.0171480000000000    0.5685320000000000    0.8227000000000000 O
   0.6068000000000000    0.2429230000000000    0.4271490000000000 O
   0.7570770000000000    0.5728510000000000    0.3932000000000000 O
   0.9271490000000000    0.7429230000000000    0.1068000000000000 O
   0.1773000000000000    0.9828519999999999    0.4314680000000000 O
   0.5171480000000001    0.3227000000000000    0.0685320000000000 O
   0.3227000000000000    0.0685320000000000    0.5171480000000001 O
   0.4314680000000000    0.1773000000000000    0.9828519999999999 O
   0.5728510000000000    0.3932000000000000    0.7570770000000000 O
   0.4271490000000000    0.6068000000000000    0.2429230000000000 O
   0.6773000000000000    0.9314680000000000    0.4828520000000000 O
   0.5685320000000000    0.8227000000000000    0.0171480000000000 O
   0.8227000000000000    0.0171480000000000    0.5685320000000000 O
   0.4828520000000000    0.6773000000000000    0.9314680000000000 O
   0.0728510000000000    0.2570770000000000    0.8932000000000000 O
   0.2429230000000000    0.4271490000000000    0.6068000000000000 O
   0.3932000000000000    0.7570770000000000    0.5728510000000000 O
   0.0685320000000000    0.5171480000000001    0.3227000000000000 O
   0.9828519999999999    0.4314680000000000    0.1773000000000000 O
   0.2570770000000000    0.8932000000000000    0.0728510000000000 O
   0.1068000000000000    0.9271490000000000    0.7429230000000000 O
