pymatgen with grid density = 1384 / number of atoms
0
Gamma
3 5 5
