ALGO = Fast
EDIFF = 0.0021000000000000003
ENCUT = 520
IBRION = 2
ISIF = 3
ISMEAR = -5
ISPIN = 2
LASPH = True
LMAXMIX = 4
LORBIT = 11
LREAL = Auto
LWAVE = False
MAGMOM = 2*0.001 2*0.0 2*0.001 1*0.0 2*0.001 1*0.012 1*0.357 1*-0.0 7*0.001 1*-0.0 1*0.098 2*0.045 1*0.001 1*0.098 1*0.013 1*0.098 2*-0.0 1*0.045 1*-0.0 2*0.008 1*0.0 1*0.001 1*0.0 1*0.013 3*-0.0 1*0.008 1*0.013
NELM = 100
NSW = 99
PREC = Accurate
SIGMA = 0.05
