Li12 Bi8 P12 O48
1.0
   4.0561509999999998    8.8300640000000001    0.0000000000000000
  -4.0561509999999998    8.8300640000000001    0.0000000000000000
   0.0000000000000000    8.4048590000000001   15.2215410000000002
Li Bi P O
12 8 12 48
direct
   0.5034750000000000    0.7679230000000000    0.8544830000000000 Li
   0.1325630000000000    0.2250910000000000    0.4491420000000000 Li
   0.5345970000000000    0.4654030000000000    0.7500000000000000 Li
   0.7749090000000000    0.8674370000000000    0.0508580000000000 Li
   0.2320770000000000    0.4965250000000000    0.6455170000000000 Li
   0.0000000000000000    0.5000000000000000    0.0000000000000000 Li
   0.7679230000000000    0.5034750000000000    0.3544830000000000 Li
   0.2250910000000000    0.1325630000000000    0.9491420000000000 Li
   0.4654030000000000    0.5345970000000000    0.2500000000000000 Li
   0.8674370000000000    0.7749090000000000    0.5508580000000000 Li
   0.4965250000000000    0.2320770000000000    0.1455170000000000 Li
   0.5000000000000000    0.0000000000000000    0.5000000000000000 Li
   0.2019710000000000    0.7188320000000000    0.0299510000000000 Bi
   0.9325850000000000    0.7490690000000000    0.3353110000000000 Bi
   0.2509310000000000    0.0674150000000000    0.1646890000000000 Bi
   0.2811680000000000    0.7980290000000000    0.4700490000000000 Bi
   0.7188320000000000    0.2019710000000000    0.5299509999999999 Bi
   0.7490690000000000    0.9325850000000000    0.8353110000000000 Bi
   0.0674150000000000    0.2509310000000000    0.6646890000000000 Bi
   0.7980290000000000    0.2811680000000000    0.9700490000000001 Bi
   0.0591310000000000    0.9367880000000000    0.8631000000000000 P
   0.0683600000000000    0.5076110000000000    0.1888350000000000 P
   0.6706540000000000    0.6134730000000000    0.5390140000000000 P
   0.3865270000000000    0.3293470000000000    0.9609860000000000 P
   0.4923890000000000    0.9316400000000000    0.3111650000000000 P
   0.0632120000000000    0.9408690000000000    0.6369000000000000 P
   0.9367880000000000    0.0591310000000000    0.3631000000000000 P
   0.5076110000000000    0.0683600000000000    0.6888350000000000 P
   0.6134730000000000    0.6706540000000000    0.0390140000000000 P
   0.3293460000000000    0.3865270000000000    0.4609860000000000 P
   0.9316400000000000    0.4923890000000000    0.8111650000000000 P
   0.9408690000000000    0.0632120000000000    0.1369000000000000 P
   0.5321450000000000    0.9693540000000000    0.7846770000000000 O
   0.6912900000000000    0.9553910000000000    0.6230380000000000 O
   0.8245460000000000    0.0359490000000000    0.3351680000000000 O
   0.0600710000000000    0.0479270000000000    0.0380950000000000 O
   0.4808130000000000    0.7499780000000000    0.9809369999999999 O
   0.0301400000000000    0.8576390000000000    0.1901740000000000 O
   0.2592870000000000    0.8378440000000000    0.8685890000000001 O
   0.2633800000000000    0.4686130000000000    0.1638470000000000 O
   0.7806970000000000    0.7061610000000000    0.5021320000000000 O
   0.6465740000000000    0.9234110000000000    0.3230790000000000 O
   0.6788130000000000    0.5089490000000000    0.6355800000000000 O
   0.9693540000000000    0.5321450000000000    0.2846770000000000 O
   0.2155650000000000    0.5312620000000000    0.9734480000000000 O
   0.9553910000000000    0.6912900000000000    0.1230380000000000 O
   0.4687380000000000    0.7844350000000000    0.5265520000000000 O
   0.0359490000000000    0.8245460000000000    0.8351680000000000 O
   0.4910510000000000    0.3211870000000000    0.8644200000000000 O
   0.0479270000000000    0.0600710000000000    0.5380950000000000 O
   0.0765890000000000    0.3534260000000000    0.1769210000000000 O
   0.7499780000000000    0.4808130000000000    0.4809370000000000 O
   0.8576390000000000    0.0301400000000000    0.6901740000000000 O
   0.2938390000000000    0.2193030000000000    0.9978680000000000 O
   0.1621560000000000    0.7407130000000000    0.6314109999999999 O
   0.5313870000000001    0.7366200000000001    0.3361530000000000 O
   0.4686130000000000    0.2633800000000000    0.6638470000000000 O
   0.8378440000000000    0.2592870000000000    0.3685890000000000 O
   0.7061610000000000    0.7806970000000000    0.0021320000000000 O
   0.1423610000000000    0.9698600000000001    0.3098260000000000 O
   0.2500220000000000    0.5191870000000000    0.5190630000000001 O
   0.9234110000000000    0.6465740000000000    0.8230790000000000 O
   0.9520729999999999    0.9399290000000000    0.4619050000000000 O
   0.5089490000000000    0.6788130000000000    0.1355800000000000 O
   0.9640510000000000    0.1754540000000000    0.1648320000000000 O
   0.5312620000000000    0.2155650000000000    0.4734480000000000 O
   0.0446090000000000    0.3087100000000000    0.8769620000000000 O
   0.7844350000000000    0.4687380000000000    0.0265520000000000 O
   0.0306460000000000    0.4678550000000000    0.7153230000000000 O
   0.3211870000000000    0.4910510000000000    0.3644200000000000 O
   0.3534260000000000    0.0765890000000000    0.6769210000000000 O
   0.2193030000000000    0.2938390000000000    0.4978680000000000 O
   0.7366200000000001    0.5313870000000001    0.8361530000000000 O
   0.7407130000000000    0.1621560000000000    0.1314110000000000 O
   0.9698600000000001    0.1423610000000000    0.8098260000000000 O
   0.5191870000000000    0.2500220000000000    0.0190630000000000 O
   0.9399290000000000    0.9520729999999999    0.9619050000000000 O
   0.1754540000000000    0.9640510000000000    0.6648320000000000 O
   0.3087100000000000    0.0446090000000000    0.3769620000000000 O
   0.4678550000000000    0.0306460000000000    0.2153230000000000 O
