pymatgen with grid density = 1036 / number of atoms
0
Gamma
3 4 5
