Ba2 Li1 C2 O6
1.0
   7.1866580000000004   -0.0285290000000000   -0.3268920000000000
  -0.0204370000000000    5.4864160000000002   -0.0026040000000000
  -1.6534450000000001    0.0018310000000000    4.3523440000000004
Ba Li C O
2 1 2 6
direct
   0.1861990000000000    0.7706020000000000    0.8955149999999999 Ba
   0.7728490000000000    0.2656960000000000    0.1184090000000000 Ba
   0.6090600000000000    0.7615340000000000    0.7411460000000000 Li
   0.2477040000000000    0.2713030000000000    0.5208040000000000 C
   0.7668590000000000    0.7672850000000000    0.4394740000000000 C
   0.1819500000000000    0.0646670000000000    0.3750570000000000 O
   0.1832700000000000    0.4776980000000000    0.3759880000000000 O
   0.3657450000000000    0.2716820000000000    0.8155420000000000 O
   0.6238899999999999    0.7681220000000000    0.1394390000000000 O
   0.7764900000000000    0.5556770000000000    0.6066470000000000 O
   0.7767250000000000    0.9762330000000000    0.6108670000000000 O
