Li6 Ga2 B4 O12
1.0
   4.9754240000000003    0.0000000000000000    0.0000000000000000
   0.0367280000000000    6.5282710000000002    0.0000000000000000
   0.1139780000000000    2.3786109999999998    7.7310970000000001
Li Ga B O
6 2 4 12
direct
   0.3372260000000000    0.3972970000000000    0.4237410000000000 Li
   0.1591680000000000    0.2520580000000000    0.1136340000000000 Li
   0.8408320000000000    0.7479420000000000    0.8863660000000000 Li
   0.8518840000000000    0.5305710000000000    0.2692430000000000 Li
   0.6627740000000000    0.6027030000000000    0.5762590000000000 Li
   0.1481160000000000    0.4694290000000000    0.7307570000000000 Li
   0.3604720000000000    0.0474310000000000    0.7785020000000000 Ga
   0.6395280000000000    0.9525690000000000    0.2214980000000000 Ga
   0.3437820000000000    0.6779600000000000    0.0724980000000000 B
   0.1571400000000000    0.8183170000000000    0.4031850000000000 B
   0.6562180000000000    0.3220400000000000    0.9275020000000000 B
   0.8428600000000001    0.1816830000000000    0.5968150000000000 B
   0.7120440000000000    0.3399010000000000    0.4799540000000000 O
   0.1247810000000000    0.1917520000000000    0.6090719999999999 O
   0.8752190000000000    0.8082480000000000    0.3909280000000000 O
   0.7109010000000000    0.0087170000000000    0.7145720000000000 O
   0.7835390000000000    0.4892510000000000    0.8157720000000001 O
   0.6077380000000000    0.7409700000000000    0.1016690000000000 O
   0.2164610000000000    0.5107490000000000    0.1842280000000000 O
   0.2202320000000000    0.7934130000000000    0.9185200000000000 O
   0.2890990000000000    0.9912830000000000    0.2854280000000000 O
   0.7797680000000000    0.2065870000000000    0.0814800000000000 O
   0.3922620000000000    0.2590300000000000    0.8983310000000000 O
   0.2879560000000000    0.6600990000000000    0.5200460000000000 O
