Li2 Bi2 P8 O24
1.0
   3.6191909999999998    8.3733079999999998    0.0000000000000000
  -3.6191909999999998    8.3733079999999998    0.0000000000000000
   0.0000000000000000    5.9571699999999996    8.0639690000000002
Li Bi P O
2 2 8 24
direct
   0.0000000000000000    0.0000000000000000    0.5000000000000000 Li
   0.0000000000000000    0.0000000000000000    0.0000000000000000 Li
   0.2452820000000000    0.7547180000000000    0.7500000000000000 Bi
   0.7547180000000000    0.2452820000000000    0.2500000000000000 Bi
   0.3105440000000000    0.4152430000000000    0.1619640000000000 P
   0.6867950000000000    0.0128230000000000    0.0944160000000000 P
   0.9871770000000000    0.3132050000000000    0.4055840000000000 P
   0.5847570000000000    0.6894560000000000    0.3380360000000000 P
   0.4152430000000000    0.3105440000000000    0.6619640000000000 P
   0.0128230000000000    0.6867950000000000    0.5944160000000001 P
   0.3132050000000000    0.9871770000000000    0.9055839999999999 P
   0.6894560000000000    0.5847570000000000    0.8380360000000000 P
   0.7567570000000000    0.9951770000000000    0.2125410000000000 O
   0.1750600000000000    0.6057770000000000    0.0481340000000000 O
   0.1670130000000000    0.3505300000000000    0.3383820000000000 O
   0.4536050000000000    0.2206300000000000    0.0884610000000000 O
   0.5633150000000000    0.5696280000000000    0.7993790000000000 O
   0.7793700000000000    0.5463950000000000    0.4115390000000000 O
   0.6494700000000000    0.8329870000000000    0.1616180000000000 O
   0.9899790000000001    0.1638860000000000    0.5761030000000000 O
   0.3942230000000000    0.8249400000000000    0.4518660000000000 O
   0.8361140000000000    0.0100210000000000    0.9238970000000000 O
   0.0048230000000000    0.2432430000000000    0.2874590000000000 O
   0.4303720000000000    0.4366850000000000    0.7006210000000000 O
   0.5696280000000000    0.5633150000000000    0.2993790000000000 O
   0.9951770000000000    0.7567570000000000    0.7125410000000000 O
   0.1638860000000000    0.9899790000000001    0.0761030000000000 O
   0.6057770000000000    0.1750600000000000    0.5481340000000000 O
   0.0100210000000000    0.8361140000000000    0.4238970000000000 O
   0.3505300000000000    0.1670130000000000    0.8383820000000000 O
   0.2206300000000000    0.4536050000000000    0.5884610000000000 O
   0.4366850000000000    0.4303720000000000    0.2006210000000000 O
   0.5463950000000000    0.7793700000000000    0.9115390000000000 O
   0.8329870000000000    0.6494700000000000    0.6616180000000000 O
   0.8249400000000000    0.3942230000000000    0.9518660000000000 O
   0.2432430000000000    0.0048230000000000    0.7874590000000000 O
