Li4 B4 H16 C8 O24 F8
1.0
  13.0794280000000001    0.0000000000000000    0.0000000000000000
   0.0000000000000000    5.6855750000000000    0.0000000000000000
   0.0000000000000000    2.6031070000000001    9.2723720000000007
Li B H C O F
4 4 16 8 24 8
direct
   0.7486050000000000    0.4519560000000000    0.2976480000000000 Li
   0.2486050000000000    0.0480440000000000    0.7023520000000000 Li
   0.2513950000000000    0.5480440000000000    0.7023520000000000 Li
   0.7513950000000000    0.9519560000000000    0.2976480000000000 Li
   0.6182550000000000    0.5175930000000000    0.8236320000000000 B
   0.1182550000000000    0.9824070000000000    0.1763680000000000 B
   0.3817450000000000    0.4824070000000000    0.1763680000000000 B
   0.8817450000000000    0.0175930000000000    0.8236320000000000 B
   0.6013160000000000    0.7589160000000000    0.1631780000000000 H
   0.1013160000000000    0.7410840000000000    0.8368220000000000 H
   0.3986840000000000    0.2410840000000000    0.8368220000000000 H
   0.8986840000000000    0.2589160000000000    0.1631780000000000 H
   0.6981210000000000    0.8173170000000000    0.0622470000000000 H
   0.1981210000000000    0.6826830000000000    0.9377529999999999 H
   0.3018790000000000    0.1826830000000000    0.9377529999999999 H
   0.8018790000000000    0.3173170000000000    0.0622470000000000 H
   0.9012170000000000    0.6774060000000000    0.3969350000000000 H
   0.4012170000000000    0.8225940000000000    0.6030650000000000 H
   0.0987830000000000    0.3225940000000000    0.6030650000000000 H
   0.5987830000000000    0.1774060000000000    0.3969350000000000 H
   0.9211549999999999    0.7188660000000000    0.2311760000000000 H
   0.4211550000000000    0.7811340000000000    0.7688240000000000 H
   0.0788450000000000    0.2811340000000000    0.7688240000000000 H
   0.5788450000000001    0.2188660000000000    0.2311760000000000 H
   0.6587980000000000    0.5450130000000000    0.5856000000000000 C
   0.1587980000000000    0.9549870000000000    0.4144000000000000 C
   0.3412020000000000    0.4549870000000000    0.4144000000000000 C
   0.8412020000000000    0.0450130000000000    0.5856000000000000 C
   0.5804960000000000    0.3369120000000000    0.6398910000000000 C
   0.0804960000000000    0.1630880000000000    0.3601090000000000 C
   0.4195040000000000    0.6630880000000000    0.3601090000000000 C
   0.9195040000000000    0.8369120000000000    0.6398910000000000 C
   0.6788870000000000    0.6449260000000000    0.6909860000000000 O
   0.1788870000000000    0.8550740000000000    0.3090140000000000 O
   0.3211130000000000    0.3550740000000000    0.3090140000000000 O
   0.8211130000000000    0.1449260000000000    0.6909860000000000 O
   0.5541530000000000    0.3328030000000000    0.7736140000000000 O
   0.0541530000000000    0.1671970000000000    0.2263860000000000 O
   0.4458470000000000    0.6671970000000000    0.2263860000000000 O
   0.9458470000000000    0.8328030000000000    0.7736140000000000 O
   0.6937280000000000    0.6087920000000000    0.4633550000000000 O
   0.1937280000000000    0.8912080000000000    0.5366450000000000 O
   0.3062720000000000    0.3912080000000000    0.5366450000000000 O
   0.8062720000000000    0.1087920000000000    0.4633550000000000 O
   0.5468680000000000    0.2036320000000000    0.5700140000000000 O
   0.0468680000000000    0.2963680000000000    0.4299860000000000 O
   0.4531320000000000    0.7963680000000000    0.4299860000000000 O
   0.9531320000000000    0.7036320000000000    0.5700140000000000 O
   0.6759700000000000    0.7688400000000000    0.1628790000000000 O
   0.1759700000000000    0.7311600000000000    0.8371210000000000 O
   0.3240300000000000    0.2311600000000000    0.8371210000000000 O
   0.8240300000000000    0.2688400000000000    0.1628790000000000 O
   0.8668150000000000    0.6951320000000000    0.3033000000000000 O
   0.3668150000000000    0.8048680000000000    0.6967000000000000 O
   0.1331850000000000    0.3048680000000000    0.6967000000000000 O
   0.6331850000000000    0.1951320000000000    0.3033000000000000 O
   0.6836870000000000    0.3977350000000000    0.9342700000000000 F
   0.1836870000000000    0.1022650000000000    0.0657300000000000 F
   0.3163130000000000    0.6022650000000001    0.0657300000000000 F
   0.8163130000000000    0.8977349999999999    0.9342700000000000 F
   0.5551270000000000    0.6834530000000000    0.8657450000000000 F
   0.0551270000000000    0.8165470000000000    0.1342550000000000 F
   0.4448730000000000    0.3165470000000000    0.1342550000000000 F
   0.9448730000000000    0.1834530000000000    0.8657450000000000 F
