Li2 Al2 P2 O9 F1
1.0
   5.1119839999999996    0.0000000000000000    0.0000000000000000
  -0.8353490000000000    5.1446680000000002    0.0000000000000000
  -2.1673279999999999   -2.3692660000000001    6.2804089999999997
Li Al P O F
2 2 2 9 1
direct
   0.7288270000000000    0.3724470000000000    0.8031340000000000 Li
   0.2677900000000000    0.6245579999999999    0.1967380000000000 Li
   0.0006110000000000    0.0018270000000000    0.9975280000000000 Al
   0.9955210000000000    0.9966370000000000    0.5002740000000000 Al
   0.6778920000000001    0.3532950000000000    0.2409590000000000 P
   0.3208670000000000    0.6476100000000000    0.7587560000000000 P
   0.1278080000000000    0.6784030000000000    0.8942520000000000 O
   0.8782400000000000    0.3266430000000000    0.1115690000000000 O
   0.6987430000000000    0.6648750000000000    0.3476880000000000 O
   0.2944980000000000    0.3328430000000000    0.6551080000000000 O
   0.3613720000000000    0.2370280000000000    0.0872910000000000 O
   0.6394220000000000    0.7630580000000000    0.9106370000000000 O
   0.2522890000000000    0.7894420000000000    0.5939510000000000 O
   0.7476190000000000    0.2039450000000000    0.3998450000000000 O
   0.9060350000000000    0.0646830000000000    0.7421590000000000 O
   0.1024660000000000    0.9427060000000000    0.2601110000000000 F
