ALGO = Fast
EDIFF = 0.0026000000000000003
ENCUT = 520
IBRION = 2
ISIF = 3
ISMEAR = -5
ISPIN = 2
LASPH = True
LMAXMIX = 4
LORBIT = 11
LREAL = Auto
LWAVE = False
MAGMOM = 2*-0.008 2*-0.014 2*0.012 1*0.024 1*-0.134 1*0.024 1*-0.034 2*-0.025 1*-0.134 1*-0.034 2*0.121 1*0.512 1*0.337 1*-0.025 1*0.045 1*0.146 1*-0.024 1*-0.007 1*-0.041 1*-0.016 1*0.004 1*0.325 1*0.495 1*-0.014 1*-0.041 1*0.001 1*-0.007 1*0.161 1*0.325 2*0.017 1*-0.016 1*0.495 1*-0.025 1*0.146 1*0.004 1*0.337 1*0.512 2*0.47 2*0.134 1*-0.024 1*0.001 1*0.161 1*0.045 1*-0.014
NELM = 100
NSW = 99
PREC = Accurate
SIGMA = 0.05
