Li6 Sn6 P6 O24
1.0
   5.3567060000000000   -7.2763710000000001    0.0000000000000000
   5.3567060000000000    7.2763710000000001    0.0000000000000000
  -4.5272769999999998    0.0000000000000000    7.8194400000000002
Li Sn P O
6 6 6 24
direct
   0.8877230000000000    0.1324920000000000    0.7220280000000000 Li
   0.4187760000000000    0.2163650000000000    0.6117570000000000 Li
   0.6117570000000000    0.4187760000000000    0.2163650000000000 Li
   0.1324920000000000    0.7220280000000000    0.8877230000000000 Li
   0.2163650000000000    0.6117570000000000    0.4187760000000000 Li
   0.7220280000000000    0.8877230000000000    0.1324920000000000 Li
   0.4457580000000000    0.0551990000000000    0.2230760000000000 Sn
   0.7739220000000000    0.5415540000000000    0.9387930000000000 Sn
   0.0551990000000000    0.2230760000000000    0.4457580000000000 Sn
   0.9387930000000000    0.7739220000000000    0.5415540000000000 Sn
   0.2230760000000000    0.4457580000000000    0.0551990000000000 Sn
   0.5415540000000000    0.9387930000000000    0.7739220000000000 Sn
   0.2784670000000000    0.1057900000000000    0.8623160000000000 P
   0.7863830000000001    0.3813410000000000    0.5825170000000000 P
   0.8623160000000000    0.2784670000000000    0.1057900000000000 P
   0.3813410000000000    0.5825170000000000    0.7863830000000001 P
   0.5825170000000000    0.7863830000000001    0.3813410000000000 P
   0.1057900000000000    0.8623160000000000    0.2784670000000000 P
   0.9016660000000000    0.2559810000000000    0.9462590000000000 O
   0.3886050000000000    0.1056580000000000    0.7580280000000000 O
   0.1033280000000000    0.1001150000000000    0.7602310000000000 O
   0.8951230000000000    0.2749330000000000    0.5901500000000000 O
   0.2731610000000000    0.0359740000000000    0.3750970000000000 O
   0.7602310000000000    0.1033280000000000    0.1001150000000000 O
   0.6605370000000000    0.3275780000000000    0.6643170000000000 O
   0.6817410000000000    0.3426580000000000    0.3947980000000000 O
   0.3426580000000000    0.3947980000000000    0.6817410000000000 O
   0.9062840000000000    0.5753660000000000    0.6905680000000000 O
   0.7580280000000000    0.3886050000000000    0.1056580000000000 O
   0.5753660000000000    0.6905680000000000    0.9062840000000000 O
   0.3750970000000000    0.2731610000000000    0.0359740000000000 O
   0.2749330000000000    0.5901500000000000    0.8951230000000000 O
   0.0359740000000000    0.3750970000000000    0.2731610000000000 O
   0.6643170000000000    0.6605370000000000    0.3275780000000000 O
   0.3275780000000000    0.6643170000000000    0.6605370000000000 O
   0.3947980000000000    0.6817410000000000    0.3426580000000000 O
   0.6905680000000000    0.9062840000000000    0.5753660000000000 O
   0.2559810000000000    0.9462590000000000    0.9016660000000000 O
   0.9462590000000000    0.9016660000000000    0.2559810000000000 O
   0.1056580000000000    0.7580280000000000    0.3886050000000000 O
   0.5901500000000000    0.8951230000000000    0.2749330000000000 O
   0.1001150000000000    0.7602310000000000    0.1033280000000000 O
