Rb1 Li1 Mg14 O15
1.0
   4.2049729999999998    0.0000000000000000    0.0000000000000000
   0.0000000000000000    8.2661320000000007    0.0000000000000000
   0.0000000000000000    0.0000000000000000   10.3510179999999998
Rb Li Mg O
1 1 14 15
direct
   0.0000000000000000    0.5000000000000000    0.4438530000000000 Rb
   0.0000000000000000    0.0000000000000000    0.0127490000000000 Li
   0.0000000000000000    0.5000000000000000    0.9831590000000000 Mg
   0.0000000000000000    0.0000000000000000    0.4738350000000000 Mg
   0.5000000000000000    0.7597260000000000    0.9913260000000000 Mg
   0.5000000000000000    0.2402740000000000    0.9913260000000000 Mg
   0.5000000000000000    0.7599430000000000    0.5665670000000000 Mg
   0.5000000000000000    0.2400570000000000    0.5665670000000000 Mg
   0.5000000000000000    0.0000000000000000    0.8001630000000000 Mg
   0.5000000000000000    0.5000000000000000    0.7684990000000000 Mg
   0.5000000000000000    0.0000000000000000    0.2625780000000000 Mg
   0.5000000000000000    0.5000000000000000    0.1801520000000000 Mg
   0.0000000000000000    0.7311810000000000    0.7659960000000000 Mg
   0.0000000000000000    0.2688190000000000    0.7659960000000000 Mg
   0.0000000000000000    0.7568150000000000    0.1862750000000000 Mg
   0.0000000000000000    0.2431850000000000    0.1862750000000000 Mg
   0.0000000000000000    0.5000000000000000    0.7893960000000000 O
   0.0000000000000000    0.0000000000000000    0.2521930000000000 O
   0.0000000000000000    0.5000000000000000    0.1838810000000000 O
   0.5000000000000000    0.7691940000000000    0.7709090000000000 O
   0.5000000000000000    0.2308060000000000    0.7709090000000000 O
   0.5000000000000000    0.7485810000000001    0.2025560000000000 O
   0.5000000000000000    0.2514190000000000    0.2025560000000000 O
   0.5000000000000000    0.0000000000000000    0.9850690000000000 O
   0.5000000000000000    0.5000000000000000    0.9809500000000000 O
   0.5000000000000000    0.0000000000000000    0.4649290000000000 O
   0.5000000000000000    0.5000000000000000    0.5768830000000000 O
   0.0000000000000000    0.7578620000000000    0.9820400000000000 O
   0.0000000000000000    0.2421380000000000    0.9820400000000000 O
   0.0000000000000000    0.7985660000000000    0.5801890000000000 O
   0.0000000000000000    0.2014340000000000    0.5801890000000000 O
