Li8 H4 I4 O4
1.0
   5.6513689999999999    0.0000000000000000    0.0000000000000000
   0.0000000000000000    6.6745530000000004    0.0000000000000000
   0.0000000000000000    0.0000000000000000   10.4919080000000005
Li H I O
8 4 4 4
direct
   0.0002270000000000    0.5608170000000000    0.8893230000000000 Li
   0.4997730000000000    0.9391830000000000    0.3893230000000000 Li
   0.5002270000000000    0.4391830000000000    0.1106770000000000 Li
   0.9997730000000000    0.0608170000000000    0.6106770000000000 Li
   0.9997730000000000    0.4391830000000000    0.1106770000000000 Li
   0.5002270000000000    0.0608170000000000    0.6106770000000000 Li
   0.4997730000000000    0.5608170000000000    0.8893230000000000 Li
   0.0002270000000000    0.9391830000000000    0.3893230000000000 Li
   0.2500000000000000    0.7741590000000000    0.5441960000000000 H
   0.2500000000000000    0.7258410000000000    0.0441960000000000 H
   0.7500000000000000    0.2258410000000000    0.4558040000000000 H
   0.7500000000000000    0.2741590000000000    0.9558040000000000 H
   0.2500000000000000    0.4159930000000000    0.6747069999999999 I
   0.2500000000000000    0.0840070000000000    0.1747070000000000 I
   0.7500000000000000    0.5840070000000001    0.3252930000000000 I
   0.7500000000000000    0.9159929999999999    0.8252930000000001 I
   0.2500000000000000    0.9159730000000000    0.5188490000000000 O
   0.2500000000000000    0.5840270000000000    0.0188490000000000 O
   0.7500000000000000    0.0840270000000000    0.4811510000000000 O
   0.7500000000000000    0.4159730000000000    0.9811510000000000 O
