ALGO = Fast
EDIFF = 0.0049
ENCUT = 520
IBRION = 2
ISIF = 3
ISMEAR = -5
ISPIN = 2
LASPH = True
LMAXMIX = 4
LORBIT = 11
LREAL = Auto
LWAVE = False
MAGMOM = 2*0.0 16*0.001 1*0.396 1*0.398 3*0.397 1*0.398 3*0.006 2*0.01 6*0.006 2*0.01 3*0.006 1*-0.001 1*0.012 1*0.067 1*-0.001 1*0.012 1*0.067 1*0.072 1*0.078 1*0.072 1*0.012 1*-0.001 1*0.067 1*0.078 1*0.072 1*0.078 2*0.026 1*0.078 1*0.072 1*0.078 1*0.067 1*-0.001 2*0.012 1*0.072 1*0.078 1*0.067 1*0.072 1*0.067 2*0.012 1*-0.001 1*0.067 1*0.072 1*0.067 1*0.078 1*0.072 2*0.012 1*-0.001 1*0.067 1*0.078 1*0.072 1*0.078 2*0.026 1*0.078 1*0.072 1*0.078 1*0.067 1*0.012 1*0.072 1*0.078 1*0.072 1*0.067 1*0.012 1*0.067 1*0.012
NELM = 100
NSW = 99
PREC = Accurate
SIGMA = 0.05
