pymatgen with grid density = 1241 / number of atoms
0
Gamma
2 2 1
