Li18 Sn6 P16 O58
1.0
   5.0680420000000002   -8.7781070000000003    0.0000000000000000
   5.0680420000000002    8.7781070000000003    0.0000000000000000
   0.0000000000000000    0.0000000000000000   14.0896830000000008
Li Sn P O
18 6 16 58
direct
   0.0000000000000000    0.0000000000000000    0.0000000000000000 Li
   0.0000000000000000    0.0000000000000000    0.5000000000000000 Li
   0.1013280000000000    0.3305890000000000    0.0620900000000000 Li
   0.2292610000000000    0.3305890000000000    0.5620900000000000 Li
   0.1013280000000000    0.7707390000000000    0.5620900000000000 Li
   0.3333330000000000    0.6666670000000000    0.8812340000000000 Li
   0.3333330000000000    0.6666670000000000    0.3812340000000000 Li
   0.2292610000000000    0.8986720000000000    0.0620900000000000 Li
   0.6694110000000000    0.7707390000000000    0.0620900000000000 Li
   0.3305890000000000    0.1013280000000000    0.4379100000000000 Li
   0.6694110000000000    0.8986720000000000    0.5620900000000000 Li
   0.3305890000000000    0.2292610000000000    0.9379100000000000 Li
   0.7707390000000000    0.1013280000000000    0.9379100000000000 Li
   0.6666670000000000    0.3333330000000000    0.1187660000000000 Li
   0.6666670000000000    0.3333330000000000    0.6187660000000000 Li
   0.8986720000000000    0.2292610000000000    0.4379100000000000 Li
   0.7707390000000000    0.6694110000000000    0.4379100000000000 Li
   0.8986720000000000    0.6694110000000000    0.9379100000000000 Li
   0.0000000000000000    0.4345870000000000    0.2500000000000000 Sn
   0.0000000000000000    0.5654130000000001    0.7500000000000000 Sn
   0.4345870000000000    0.4345870000000000    0.7500000000000000 Sn
   0.5654130000000001    0.5654130000000001    0.2500000000000000 Sn
   0.4345870000000000    0.0000000000000000    0.2500000000000000 Sn
   0.5654130000000001    0.0000000000000000    0.7500000000000000 Sn
   0.0860320000000000    0.3091210000000000    0.8469680000000001 P
   0.2230890000000000    0.3091210000000000    0.3469680000000000 P
   0.0860320000000000    0.7769110000000000    0.3469680000000000 P
   0.3333330000000000    0.6666670000000000    0.6151310000000000 P
   0.3333330000000000    0.6666670000000000    0.1151310000000000 P
   0.2230890000000000    0.9139680000000000    0.8469680000000001 P
   0.3091210000000000    0.0860320000000000    0.6530319999999999 P
   0.6908790000000000    0.7769110000000000    0.8469680000000001 P
   0.3091210000000000    0.2230890000000000    0.1530320000000000 P
   0.6908790000000000    0.9139680000000000    0.3469680000000000 P
   0.7769110000000000    0.0860320000000000    0.1530320000000000 P
   0.6666670000000000    0.3333330000000000    0.3848690000000000 P
   0.6666670000000000    0.3333330000000000    0.8848690000000000 P
   0.9139680000000000    0.2230890000000000    0.6530319999999999 P
   0.7769110000000000    0.6908790000000000    0.6530319999999999 P
   0.9139680000000000    0.6908790000000000    0.1530320000000000 P
   0.0000000000000000    0.2222040000000000    0.7500000000000000 O
   0.0095320000000000    0.2283680000000000    0.5682450000000000 O
   0.0694930000000000    0.3082010000000000    0.3483460000000000 O
   0.2222040000000000    0.2222040000000000    0.2500000000000000 O
   0.2188360000000000    0.2283680000000000    0.0682450000000000 O
   0.2387080000000000    0.3082010000000000    0.8483460000000000 O
   0.1200320000000000    0.4756120000000000    0.8426110000000000 O
   0.2012520000000000    0.5091000000000000    0.1532070000000000 O
   0.1200320000000000    0.6444210000000000    0.3426110000000000 O
   0.0095320000000000    0.7811640000000000    0.0682450000000000 O
   0.0000000000000000    0.7777960000000000    0.2500000000000000 O
   0.0694930000000000    0.7612920000000000    0.8483460000000000 O
   0.3078480000000000    0.5091000000000000    0.6532070000000000 O
   0.3555790000000000    0.4756120000000000    0.3426110000000000 O
   0.2012520000000000    0.6921520000000000    0.6532070000000000 O
   0.3333330000000000    0.6666670000000000    0.5084220000000000 O
   0.3333330000000000    0.6666670000000000    0.0084220000000000 O
   0.3078480000000000    0.7987480000000000    0.1532070000000000 O
   0.5243880000000000    0.6444210000000000    0.8426110000000000 O
   0.4909000000000000    0.6921520000000000    0.1532070000000000 O
   0.2387080000000000    0.9305070000000000    0.3483460000000000 O
   0.2222040000000000    0.0000000000000000    0.7500000000000000 O
   0.2188360000000000    0.9904680000000000    0.5682450000000000 O
   0.2283680000000000    0.0095320000000000    0.9317550000000000 O
   0.3555790000000000    0.8799680000000000    0.8426110000000000 O
   0.4909000000000000    0.7987480000000000    0.6532070000000000 O
   0.3082010000000000    0.0694930000000000    0.1516540000000000 O
   0.5243880000000000    0.8799680000000000    0.3426110000000000 O
   0.6917990000000001    0.7612920000000000    0.3483460000000000 O
   0.2283680000000000    0.2188360000000000    0.4317550000000000 O
   0.7716320000000000    0.7811640000000000    0.5682450000000000 O
   0.7777960000000000    0.7777960000000000    0.7500000000000000 O
   0.3082010000000000    0.2387080000000000    0.6516540000000000 O
   0.4756120000000000    0.1200320000000000    0.6573890000000000 O
   0.6917990000000001    0.9305070000000000    0.8483460000000000 O
   0.5091000000000000    0.2012520000000000    0.3467930000000000 O
   0.6444210000000000    0.1200320000000000    0.1573890000000000 O
   0.7716320000000000    0.9904680000000000    0.0682450000000000 O
   0.7811640000000000    0.0095320000000000    0.4317550000000000 O
   0.7777960000000000    0.0000000000000000    0.2500000000000000 O
   0.7612920000000000    0.0694930000000000    0.6516540000000000 O
   0.5091000000000000    0.3078480000000000    0.8467930000000000 O
   0.4756120000000000    0.3555790000000000    0.1573890000000000 O
   0.6921520000000000    0.2012520000000000    0.8467930000000000 O
   0.6666670000000000    0.3333330000000000    0.4915780000000000 O
   0.6666670000000000    0.3333330000000000    0.9915780000000000 O
   0.7987480000000000    0.3078480000000000    0.3467930000000000 O
   0.6444210000000000    0.5243880000000000    0.6573890000000000 O
   0.6921520000000000    0.4909000000000000    0.3467930000000000 O
   0.9305070000000000    0.2387080000000000    0.1516540000000000 O
   0.9904680000000000    0.2188360000000000    0.9317550000000000 O
   0.8799680000000000    0.3555790000000000    0.6573890000000000 O
   0.7987480000000000    0.4909000000000000    0.8467930000000000 O
   0.8799680000000000    0.5243880000000000    0.1573890000000000 O
   0.7612920000000000    0.6917990000000001    0.1516540000000000 O
   0.7811640000000000    0.7716320000000000    0.9317550000000000 O
   0.9305070000000000    0.6917990000000001    0.6516540000000000 O
   0.9904680000000000    0.7716320000000000    0.4317550000000000 O
