Li20 Sn2 P4 O24
1.0
   6.8368469999999997    0.0000000000000000    0.0000000000000000
  -0.0851020000000000    7.5113779999999997    0.0000000000000000
  -0.0530650000000000   -0.0173620000000000   10.9952360000000002
Li Sn P O
20 2 4 24
direct
   0.4598620000000000    0.9373000000000000    0.9042660000000000 Li
   0.4440230000000000    0.9222440000000000    0.4301830000000000 Li
   0.0487980000000000    0.5723420000000000    0.5422760000000000 Li
   0.0187120000000000    0.4529400000000000    0.0635140000000000 Li
   0.6994030000000000    0.3547010000000000    0.1957050000000000 Li
   0.3413610000000000    0.6090240000000000    0.2542490000000000 Li
   0.0451590000000000    0.0824420000000000    0.7685750000000000 Li
   0.2372780000000000    0.2188960000000000    0.3043560000000000 Li
   0.7780330000000000    0.7689740000000000    0.3484810000000000 Li
   0.5073420000000000    0.4837210000000000    0.7588420000000000 Li
   0.6911230000000000    0.2188870000000000    0.3907090000000000 Li
   0.7625040000000000    0.8077029999999999    0.8967170000000000 Li
   0.2615270000000000    0.2100230000000000    0.9793320000000000 Li
   0.8778510000000000    0.7564480000000000    0.0977750000000000 Li
   0.2673120000000000    0.7714470000000000    0.6566080000000000 Li
   0.7555250000000000    0.1708070000000000    0.9323160000000000 Li
   0.2349490000000000    0.7470110000000000    0.9966890000000000 Li
   0.2593310000000000    0.2979720000000000    0.5655180000000000 Li
   0.7570020000000000    0.7500230000000000    0.6312230000000000 Li
   0.7687460000000000    0.3178600000000000    0.6045270000000000 Li
   0.5194160000000000    0.9808200000000000    0.1615860000000000 Sn
   0.0158380000000000    0.4944120000000000    0.8029960000000000 Sn
   0.0101660000000000    0.0118710000000000    0.5034810000000000 P
   0.5117070000000000    0.5141610000000000    0.9995070000000000 P
   0.5128290000000000    0.0239300000000000    0.6852940000000000 P
   0.9983170000000000    0.4818630000000000    0.3207660000000000 P
   0.8284790000000000    0.0076250000000000    0.4188150000000000 O
   0.2017440000000000    0.0473550000000000    0.4336630000000000 O
   0.5147450000000000    0.3350690000000000    0.9279890000000000 O
   0.5015290000000000    0.6698710000000000    0.9046230000000000 O
   0.3215520000000000    0.5223370000000001    0.0783880000000000 O
   0.6967950000000001    0.5334440000000000    0.0805450000000000 O
   0.9921680000000000    0.1646790000000000    0.6002540000000000 O
   0.0175420000000000    0.8271550000000000    0.5711210000000000 O
   0.7352580000000000    0.9628590000000000    0.0422000000000000 O
   0.2993190000000000    0.9800270000000000    0.0442470000000000 O
   0.5224280000000000    0.2025140000000000    0.6148900000000000 O
   0.5176790000000000    0.8622740000000000    0.5949380000000000 O
   0.1913380000000000    0.4596690000000000    0.3963480000000000 O
   0.8200800000000000    0.4745550000000000    0.4098630000000000 O
   0.0174190000000000    0.2718660000000000    0.9002780000000000 O
   0.9989890000000000    0.6835560000000001    0.9278330000000000 O
   0.3176070000000000    0.0028210000000000    0.7568530000000000 O
   0.6849160000000000    0.0022790000000000    0.7790120000000000 O
   0.5189350000000000    0.7934850000000000    0.2878970000000000 O
   0.5111750000000000    0.2036110000000000    0.2601320000000000 O
   0.7811600000000000    0.5234430000000000    0.6979020000000000 O
   0.2302050000000000    0.5158120000000000    0.6803230000000000 O
   0.0046640000000000    0.6646270000000000    0.2539810000000000 O
   0.9830580000000000    0.3286420000000000    0.2256140000000000 O
