pymatgen with grid density = 1398 / number of atoms
0
Gamma
2 2 2
