pymatgen with grid density = 1921 / number of atoms
0
Monkhorst
2 4 4
