Li3 U7 As5 O35
1.0
   7.3262270000000003    0.0000000000000000    0.0000000000000000
   0.0000000000000000    7.3907879999999997    0.0000000000000000
   0.0000000000000000    0.0000000000000000   14.8891419999999997
Li U As O
3 7 5 35
direct
   0.0000000000000000    0.5000000000000000    0.8591569999999999 Li
   0.5000000000000000    0.0000000000000000    0.1342310000000000 Li
   0.0000000000000000    0.0000000000000000    0.3023910000000000 Li
   0.0000000000000000    0.5000000000000000    0.5671000000000000 U
   0.5000000000000000    0.0000000000000000    0.4304820000000000 U
   0.5000000000000000    0.0000000000000000    0.7192570000000000 U
   0.0000000000000000    0.5000000000000000    0.2817480000000000 U
   0.5000000000000000    0.5000000000000000    0.8565300000000000 U
   0.5000000000000000    0.5000000000000000    0.1427120000000000 U
   0.0000000000000000    0.0000000000000000    0.0025040000000000 U
   0.5000000000000000    0.0000000000000000    0.9422880000000000 As
   0.0000000000000000    0.5000000000000000    0.0580260000000000 As
   0.5000000000000000    0.5000000000000000    0.6318330000000000 As
   0.5000000000000000    0.5000000000000000    0.3697090000000000 As
   0.0000000000000000    0.0000000000000000    0.5008520000000000 As
   0.0000000000000000    0.0000000000000000    0.8820960000000000 O
   0.0000000000000000    0.0000000000000000    0.1247940000000000 O
   0.5000000000000000    0.8241970000000000    0.8663060000000000 O
   0.5000000000000000    0.1758030000000000    0.8663060000000000 O
   0.1743390000000000    0.5000000000000000    0.1365970000000000 O
   0.8256610000000000    0.5000000000000000    0.1365970000000000 O
   0.3163030000000000    0.0000000000000000    0.0134850000000000 O
   0.6836970000000000    0.0000000000000000    0.0134850000000000 O
   0.0000000000000000    0.3155250000000000    0.9893700000000000 O
   0.0000000000000000    0.6844749999999999    0.9893700000000000 O
   0.0000000000000000    0.5000000000000000    0.6892380000000000 O
   0.5000000000000000    0.0000000000000000    0.3082390000000000 O
   0.2518560000000000    0.5000000000000000    0.8519230000000000 O
   0.7481440000000000    0.5000000000000000    0.8519230000000000 O
   0.5000000000000000    0.2530250000000000    0.1491030000000000 O
   0.5000000000000000    0.7469749999999999    0.1491030000000000 O
   0.3055700000000000    0.5000000000000000    0.5682000000000000 O
   0.6944300000000000    0.5000000000000000    0.5682000000000000 O
   0.5000000000000000    0.3047040000000000    0.4304780000000000 O
   0.5000000000000000    0.6952960000000000    0.4304780000000000 O
   0.2561800000000000    0.0000000000000000    0.7179360000000000 O
   0.7438200000000000    0.0000000000000000    0.7179360000000000 O
   0.0000000000000000    0.2541970000000000    0.2812580000000000 O
   0.0000000000000000    0.7458030000000000    0.2812580000000000 O
   0.1858480000000000    0.0000000000000000    0.4277740000000000 O
   0.8141520000000000    0.0000000000000000    0.4277740000000000 O
   0.0000000000000000    0.1943490000000000    0.5636050000000000 O
   0.0000000000000000    0.8056510000000000    0.5636050000000000 O
   0.5000000000000000    0.6767600000000000    0.7074549999999999 O
   0.5000000000000000    0.3232400000000000    0.7074549999999999 O
   0.3204040000000000    0.5000000000000000    0.2939990000000000 O
   0.6795960000000000    0.5000000000000000    0.2939990000000000 O
   0.5000000000000000    0.5000000000000000    0.0008340000000000 O
   0.0000000000000000    0.5000000000000000    0.4366160000000000 O
   0.5000000000000000    0.0000000000000000    0.5573890000000000 O
