Li12 Y4 N24 O72
1.0
   0.0000000000000000    7.6566273200000001    0.0000000000000000
   7.5944493199999998    0.0000000000000000   -2.2919098999999998
  -7.6054575599999996    0.0000000000000000  -23.1582130699999986
Li Y N O
12 4 24 72
direct
   0.8163025400000000    0.7080250500000000    0.6345671300000000 Li
   0.1836974600000000    0.2919749500000000    0.3654328700000000 Li
   0.3163025400000000    0.7919749500000000    0.8654328700000000 Li
   0.6836974600000000    0.2080250500000000    0.1345671300000000 Li
   0.5580467800000000    0.9988476500000000    0.7451024900000000 Li
   0.4419532200000000    0.0011523500000000    0.2548975100000000 Li
   0.0580467800000000    0.5011523500000000    0.7548975100000000 Li
   0.9419532200000000    0.4988476500000000    0.2451024900000000 Li
   0.2896853400000000    0.7419885500000000    0.5255544100000000 Li
   0.7103146600000000    0.2580114500000000    0.4744455900000000 Li
   0.7896853400000000    0.7580114500000000    0.9744455900000000 Li
   0.2103146600000000    0.2419885500000000    0.0255544100000000 Li
   0.3055992000000000    0.2430433400000000    0.6096159200000000 Y
   0.6944008000000000    0.7569566599999999    0.3903840800000000 Y
   0.8055992000000000    0.2569566600000000    0.8903840800000000 Y
   0.1944008000000000    0.7430433400000001    0.1096159200000000 Y
   0.7985089700000000    0.7352134299999999    0.7352877900000000 N
   0.2014910300000000    0.2647865700000000    0.2647122100000000 N
   0.2985089700000000    0.7647865700000001    0.7647122100000000 N
   0.7014910300000000    0.2352134300000000    0.2352877900000000 N
   0.3022307200000000    0.2608078700000000    0.7299304700000000 N
   0.6977692800000000    0.7391921299999999    0.2700695300000000 N
   0.8022307200000000    0.2391921300000000    0.7700695300000000 N
   0.1977692800000000    0.7608078700000001    0.2299304700000000 N
   0.4930215300000000    0.1459414900000000    0.9458445599999999 N
   0.5069784700000000    0.8540585100000000    0.0541554400000000 N
   0.9930215300000000    0.3540585100000000    0.5541554400000001 N
   0.0069784700000000    0.6459414900000000    0.4458445600000000 N
   0.1277233400000000    0.3995341000000000    0.9360670700000000 N
   0.8722766600000000    0.6004659000000000    0.0639329300000000 N
   0.6277233400000000    0.1004659000000000    0.5639329300000000 N
   0.3722766600000000    0.8995341000000000    0.4360670700000000 N
   0.1148966400000000    0.9247273000000000    0.6063423300000000 N
   0.8851033600000000    0.0752727000000000    0.3936576700000000 N
   0.6148966400000000    0.5752727000000000    0.8936576700000000 N
   0.3851033600000000    0.4247273000000000    0.1063423300000000 N
   0.0067711100000000    0.9456244800000000    0.9027680000000000 N
   0.9932288900000000    0.0543755200000000    0.0972320000000000 N
   0.5067711100000000    0.5543755200000000    0.5972320000000000 N
   0.4932288900000000    0.4456244800000000    0.4027680000000000 N
   0.3972160200000000    0.1549146500000000    0.7020446000000000 O
   0.6027839800000000    0.8450853500000000    0.2979554000000000 O
   0.8972160200000000    0.3450853500000000    0.7979554000000000 O
   0.1027839800000000    0.6549146500000000    0.2020446000000000 O
   0.5244211000000000    0.0914856100000000    0.8972156300000000 O
   0.4755789000000000    0.9085143900000000    0.1027843700000000 O
   0.0244211000000000    0.4085143900000000    0.6027843700000000 O
   0.9755789000000000    0.5914856100000000    0.3972156300000000 O
   0.6060913200000000    0.2460119900000000    0.9677912400000001 O
   0.3939086800000000    0.7539880100000000    0.0322087600000000 O
   0.1060913200000000    0.2539880100000000    0.5322087599999999 O
   0.8939086800000000    0.7460119900000000    0.4677912400000000 O
   0.3002969700000000    0.2685515500000000    0.7801071600000000 O
   0.6997030300000000    0.7314484500000000    0.2198928400000000 O
   0.8002969700000000    0.2314484500000000    0.7198928400000000 O
   0.1997030300000000    0.7685515500000000    0.2801071600000000 O
   0.2627421400000000    0.4555948000000000    0.9571398000000000 O
   0.7372578600000000    0.5444052000000000    0.0428602000000000 O
   0.7627421400000000    0.0444052000000000    0.5428602000000000 O
   0.2372578600000000    0.9555948000000000    0.4571398000000000 O
   0.0472070500000000    0.0560236500000000    0.8679666400000000 O
   0.9527929500000000    0.9439763500000000    0.1320333600000000 O
   0.5472070500000000    0.4439763500000000    0.6320333600000000 O
   0.4527929500000000    0.5560236500000000    0.3679666400000000 O
   0.3583769300000000    0.1035703000000000    0.9707514100000000 O
   0.6416230700000000    0.8964297000000000    0.0292485900000000 O
   0.8583769300000000    0.3964297000000000    0.5292485900000000 O
   0.1416230700000000    0.6035703000000000    0.4707514100000000 O
   0.2960267000000000    0.7544276600000001    0.7138997100000000 O
   0.7039733000000000    0.2455723400000000    0.2861002900000000 O
   0.7960267000000000    0.7455723399999999    0.7861002900000000 O
   0.2039733000000000    0.2544276600000000    0.2138997100000000 O
   0.6365698400000001    0.4699463300000000    0.4296516500000000 O
   0.3634301600000000    0.5300536700000000    0.5703483499999999 O
   0.1365698400000000    0.0300536700000000    0.0703483500000000 O
   0.8634301599999999    0.9699463300000000    0.9296516500000001 O
   0.0330402900000000    0.7908243800000000    0.5996660500000000 O
   0.9669597100000000    0.2091756200000000    0.4003339500000000 O
   0.5330402900000000    0.7091756200000000    0.9003339500000000 O
   0.4669597100000000    0.2908243800000000    0.0996660500000000 O
   0.0232611700000000    0.3032586800000000    0.9645188300000000 O
   0.9767388299999999    0.6967413200000000    0.0354811700000000 O
   0.5232611700000001    0.1967413200000000    0.5354811700000000 O
   0.4767388300000000    0.8032586800000000    0.4645188300000000 O
   0.0808407000000000    0.4268908100000000    0.8873816900000000 O
   0.9191593000000000    0.5731091900000000    0.1126183100000000 O
   0.5808407000000000    0.0731091900000000    0.6126183100000000 O
   0.4191593000000000    0.9268908100000000    0.3873816900000000 O
   0.2084350300000000    0.3592731100000000    0.7002313900000000 O
   0.7915649700000000    0.6407268900000000    0.2997686100000000 O
   0.7084350300000000    0.1407268900000000    0.7997686100000000 O
   0.2915649700000000    0.8592731100000000    0.2002313900000000 O
   0.5988486100000000    0.6796017600000001    0.5885316500000000 O
   0.4011513900000000    0.3203982400000000    0.4114683500000000 O
   0.0988486100000000    0.8203982399999999    0.9114683500000000 O
   0.9011513900000000    0.1796017600000000    0.0885316500000000 O
   0.0650777100000000    0.0460362200000000    0.6372320700000000 O
   0.9349222900000000    0.9539637800000000    0.3627679300000000 O
   0.5650777100000000    0.4539637800000000    0.8627679300000000 O
   0.4349222900000000    0.5460362200000000    0.1372320700000000 O
   0.2600034200000000    0.9451281600000000    0.5802352300000000 O
   0.7399965800000000    0.0548718400000000    0.4197647700000000 O
   0.7600034200000000    0.5548718400000000    0.9197647700000000 O
   0.2399965800000000    0.4451281600000000    0.0802352300000000 O
   0.3918386200000000    0.8750874400000000    0.7907332900000000 O
   0.6081613800000000    0.1249125600000000    0.2092667100000000 O
   0.8918386200000000    0.6249125600000000    0.7092667100000000 O
   0.1081613800000000    0.3750874400000000    0.2907332900000000 O
   0.7089962400000001    0.8333083999999999    0.7051104000000000 O
   0.2910037600000000    0.1666916000000000    0.2948896000000000 O
   0.2089962400000000    0.6666916000000001    0.7948896000000000 O
   0.7910037599999999    0.3333084000000000    0.2051104000000000 O
