Li8 Bi8 B8 O28
1.0
   6.5034500000000000    0.0000000000000000    0.0000000000000000
   0.0000000000000000   10.4799530000000001    0.0000000000000000
   0.0000000000000000    5.1179969999999999    9.2504200000000001
Li Bi B O
8 8 8 28
direct
   0.2802300000000000    0.5988420000000000    0.9796820000000001 Li
   0.9078470000000000    0.4997560000000000    0.7241010000000000 Li
   0.4078470000000000    0.5002440000000000    0.7758990000000000 Li
   0.2197700000000000    0.5988420000000000    0.4796820000000000 Li
   0.7802300000000000    0.4011580000000000    0.5203179999999999 Li
   0.5921530000000000    0.4997560000000000    0.2241010000000000 Li
   0.0921530000000000    0.5002440000000000    0.2758990000000000 Li
   0.7197700000000000    0.4011580000000000    0.0203180000000000 Li
   0.4551120000000000    0.0016720000000000    0.8155930000000000 Bi
   0.0448880000000000    0.0016720000000000    0.3155930000000000 Bi
   0.5740180000000000    0.8000990000000000    0.5966490000000000 Bi
   0.9259820000000000    0.8000990000000000    0.0966490000000000 Bi
   0.0740180000000000    0.1999010000000000    0.9033510000000000 Bi
   0.4259820000000000    0.1999010000000000    0.4033510000000000 Bi
   0.9551120000000000    0.9983280000000000    0.6844070000000000 Bi
   0.5448880000000000    0.9983280000000000    0.1844070000000000 Bi
   0.7473700000000000    0.6607340000000000    0.9325570000000000 B
   0.1514640000000000    0.7664940000000000    0.6575980000000000 B
   0.7526300000000000    0.6607340000000000    0.4325570000000000 B
   0.3485360000000000    0.7664940000000000    0.1575980000000000 B
   0.6514640000000000    0.2335060000000000    0.8424020000000000 B
   0.2473700000000000    0.3392660000000000    0.5674430000000000 B
   0.8485360000000000    0.2335060000000000    0.3424020000000000 B
   0.2526300000000000    0.3392660000000000    0.0674430000000000 B
   0.1287200000000000    0.9815430000000001    0.9025580000000000 O
   0.7959570000000000    0.8113890000000000    0.8766680000000000 O
   0.2485640000000000    0.8107440000000000    0.7475270000000001 O
   0.3712800000000000    0.9815430000000001    0.4025580000000000 O
   0.9632590000000000    0.8344930000000000    0.5963550000000000 O
   0.6480800000000000    0.6097630000000001    0.8514470000000000 O
   0.7040430000000000    0.8113890000000000    0.3766680000000000 O
   0.2435050000000000    0.6706700000000000    0.6216640000000000 O
   0.2514360000000000    0.8107440000000000    0.2475270000000000 O
   0.5367410000000000    0.8344930000000000    0.0963550000000000 O
   0.7000250000000000    0.5693800000000000    0.5748350000000000 O
   0.2000250000000000    0.4306200000000000    0.9251650000000000 O
   0.8519200000000000    0.6097630000000001    0.3514470000000000 O
   0.2564950000000000    0.6706700000000000    0.1216640000000000 O
   0.7435050000000000    0.3293300000000000    0.8783360000000000 O
   0.1480800000000000    0.3902370000000000    0.6485530000000000 O
   0.7999750000000000    0.5693800000000000    0.0748350000000000 O
   0.2999750000000000    0.4306200000000000    0.4251650000000000 O
   0.4632590000000000    0.1655070000000000    0.9036450000000000 O
   0.7485640000000000    0.1892560000000000    0.7524729999999999 O
   0.7564950000000000    0.3293300000000000    0.3783360000000000 O
   0.2959570000000000    0.1886110000000000    0.6233320000000000 O
   0.3519200000000000    0.3902370000000000    0.1485530000000000 O
   0.0367410000000000    0.1655070000000000    0.4036450000000000 O
   0.6287199999999999    0.0184570000000000    0.5974420000000000 O
   0.7514360000000000    0.1892560000000000    0.2524730000000000 O
   0.2040430000000000    0.1886110000000000    0.1233320000000000 O
   0.8712800000000001    0.0184570000000000    0.0974420000000000 O
