Li4 Zn4 As4 O20
1.0
   0.0000000000000000    0.0000000000000000   -5.2572650000000003
   0.0000000000000000   -8.3680040000000009    0.0000000000000000
 -11.0045699999999993    0.0000000000000000    0.0000000000000000
Li Zn As O
4 4 4 20
direct
   0.2371630000000000    0.6730750000000000    0.1762500000000000 Li
   0.7371630000000000    0.3269250000000000    0.8237500000000000 Li
   0.7371630000000000    0.1730750000000000    0.3237500000000000 Li
   0.2371630000000000    0.8269250000000000    0.6762500000000000 Li
   0.7406790000000000    0.8705140000000000    0.1224360000000000 Zn
   0.2406790000000000    0.1294860000000000    0.8775640000000000 Zn
   0.2406790000000000    0.3705140000000000    0.3775640000000000 Zn
   0.7406790000000000    0.6294860000000000    0.6224360000000000 Zn
   0.7429860000000000    0.5781300000000000    0.3262190000000000 As
   0.2429860000000000    0.4218700000000000    0.6737810000000000 As
   0.2429860000000000    0.0781300000000000    0.1737810000000000 As
   0.7429860000000000    0.9218700000000000    0.8262190000000000 As
   0.8169600000000000    0.6854560000000000    0.4545590000000000 O
   0.3169600000000000    0.3145440000000000    0.5454410000000000 O
   0.3169600000000000    0.1854560000000000    0.0454410000000000 O
   0.8169600000000000    0.8145440000000000    0.9545590000000000 O
   0.8728920000000000    0.6760220000000000    0.2034070000000000 O
   0.3728920000000000    0.3239780000000000    0.7965930000000000 O
   0.3728920000000000    0.1760220000000000    0.2965930000000000 O
   0.8728920000000000    0.8239780000000000    0.7034070000000000 O
   0.4190140000000000    0.5569030000000000    0.3049020000000000 O
   0.9190140000000000    0.4430970000000000    0.6950980000000000 O
   0.9190140000000000    0.0569030000000000    0.1950980000000000 O
   0.4190140000000000    0.9430970000000000    0.8049020000000000 O
   0.8765230000000001    0.3903110000000000    0.3356290000000000 O
   0.3765230000000000    0.6096890000000000    0.6643710000000000 O
   0.3765230000000000    0.8903110000000000    0.1643710000000000 O
   0.8765230000000001    0.1096890000000000    0.8356290000000000 O
   0.3149830000000000    0.5895400000000000    0.0023710000000000 O
   0.8149830000000000    0.4104600000000000    0.9976290000000000 O
   0.8149830000000000    0.0895400000000000    0.4976290000000000 O
   0.3149830000000000    0.9104600000000000    0.5023710000000000 O
