Li1 La1 Mg30 O32
1.0
   8.6081160000000008    0.0000000000000000    0.0000000000000000
   0.0000000000000000    8.6081160000000008    0.0000000000000000
   0.0000000000000000    0.0000000000000000    8.6004100000000001
Li La Mg O
1 1 30 32
direct
   0.0000000000000000    0.0000000000000000    0.0000000000000000 Li
   0.0000000000000000    0.0000000000000000    0.5000000000000000 La
   0.5000000000000000    0.0000000000000000    0.0000000000000000 Mg
   0.5000000000000000    0.0000000000000000    0.5000000000000000 Mg
   0.0000000000000000    0.5000000000000000    0.0000000000000000 Mg
   0.0000000000000000    0.5000000000000000    0.5000000000000000 Mg
   0.5000000000000000    0.5000000000000000    0.0000000000000000 Mg
   0.5000000000000000    0.5000000000000000    0.5000000000000000 Mg
   0.2548970000000000    0.0000000000000000    0.2381180000000000 Mg
   0.2548970000000000    0.0000000000000000    0.7618819999999999 Mg
   0.7451030000000000    0.0000000000000000    0.2381180000000000 Mg
   0.7451030000000000    0.0000000000000000    0.7618819999999999 Mg
   0.2501360000000000    0.5000000000000000    0.2480440000000000 Mg
   0.2501360000000000    0.5000000000000000    0.7519560000000000 Mg
   0.7498640000000000    0.5000000000000000    0.2480440000000000 Mg
   0.7498640000000000    0.5000000000000000    0.7519560000000000 Mg
   0.0000000000000000    0.2548970000000000    0.2381180000000000 Mg
   0.0000000000000000    0.2548970000000000    0.7618819999999999 Mg
   0.5000000000000000    0.2501360000000000    0.2480440000000000 Mg
   0.5000000000000000    0.2501360000000000    0.7519560000000000 Mg
   0.0000000000000000    0.7451030000000000    0.2381180000000000 Mg
   0.0000000000000000    0.7451030000000000    0.7618819999999999 Mg
   0.5000000000000000    0.7498640000000000    0.2480440000000000 Mg
   0.5000000000000000    0.7498640000000000    0.7519560000000000 Mg
   0.2476020000000000    0.2476020000000000    0.0000000000000000 Mg
   0.2577380000000000    0.2577380000000000    0.5000000000000000 Mg
   0.7523980000000000    0.2476020000000000    0.0000000000000000 Mg
   0.7422620000000000    0.2577380000000000    0.5000000000000000 Mg
   0.2476020000000000    0.7523980000000000    0.0000000000000000 Mg
   0.2577380000000000    0.7422620000000000    0.5000000000000000 Mg
   0.7523980000000000    0.7523980000000000    0.0000000000000000 Mg
   0.7422620000000000    0.7422620000000000    0.5000000000000000 Mg
   0.0000000000000000    0.2608000000000000    0.0000000000000000 O
   0.0000000000000000    0.2681620000000000    0.5000000000000000 O
   0.5000000000000000    0.2518380000000000    0.0000000000000000 O
   0.5000000000000000    0.2532650000000000    0.5000000000000000 O
   0.0000000000000000    0.7392000000000000    0.0000000000000000 O
   0.0000000000000000    0.7318380000000000    0.5000000000000000 O
   0.5000000000000000    0.7481620000000000    0.0000000000000000 O
   0.5000000000000000    0.7467350000000000    0.5000000000000000 O
   0.2492220000000000    0.2492220000000000    0.2513810000000000 O
   0.2492220000000000    0.2492220000000000    0.7486190000000000 O
   0.7507779999999999    0.2492220000000000    0.2513810000000000 O
   0.7507779999999999    0.2492220000000000    0.7486190000000000 O
   0.2492220000000000    0.7507779999999999    0.2513810000000000 O
   0.2492220000000000    0.7507779999999999    0.7486190000000000 O
   0.7507779999999999    0.7507779999999999    0.2513810000000000 O
   0.7507779999999999    0.7507779999999999    0.7486190000000000 O
   0.0000000000000000    0.0000000000000000    0.2327700000000000 O
   0.0000000000000000    0.0000000000000000    0.7672300000000000 O
   0.5000000000000000    0.0000000000000000    0.2488620000000000 O
   0.5000000000000000    0.0000000000000000    0.7511380000000000 O
   0.0000000000000000    0.5000000000000000    0.2488620000000000 O
   0.0000000000000000    0.5000000000000000    0.7511380000000000 O
   0.5000000000000000    0.5000000000000000    0.2502260000000000 O
   0.5000000000000000    0.5000000000000000    0.7497740000000001 O
   0.2608000000000000    0.0000000000000000    0.0000000000000000 O
   0.2681620000000000    0.0000000000000000    0.5000000000000000 O
   0.7392000000000000    0.0000000000000000    0.0000000000000000 O
   0.7318380000000000    0.0000000000000000    0.5000000000000000 O
   0.2518380000000000    0.5000000000000000    0.0000000000000000 O
   0.2532650000000000    0.5000000000000000    0.5000000000000000 O
   0.7481620000000000    0.5000000000000000    0.0000000000000000 O
   0.7467350000000000    0.5000000000000000    0.5000000000000000 O
