pymatgen with grid density = 993 / number of atoms
0
Gamma
2 2 1
