Li2 Sb6 P12 O40
1.0
   5.3682759999999998   -6.9699390000000001    0.0000000000000000
   5.3682759999999998    6.9699390000000001    0.0000000000000000
   0.0000000000000000    0.0000000000000000   12.8229780000000009
Li Sb P O
2 6 12 40
direct
   0.5027890000000000    0.5027890000000000    0.5000000000000000 Li
   0.4972110000000000    0.4972110000000000    0.0000000000000000 Li
   0.1356610000000000    0.1356610000000000    0.0000000000000000 Sb
   0.7012870000000000    0.2987130000000000    0.2500000000000000 Sb
   0.7624990000000000    0.2375010000000000    0.7500000000000000 Sb
   0.2987130000000000    0.7012870000000000    0.7500000000000000 Sb
   0.2375010000000000    0.7624990000000000    0.2500000000000000 Sb
   0.8643390000000000    0.8643390000000000    0.5000000000000000 Sb
   0.0987640000000000    0.3685630000000000    0.3229250000000000 P
   0.3685630000000000    0.0987640000000000    0.6770750000000000 P
   0.2960550000000000    0.1906690000000000    0.2284790000000000 P
   0.1906690000000000    0.2960550000000000    0.7715210000000000 P
   0.7260080000000000    0.1438810000000000    0.0126710000000000 P
   0.1438810000000000    0.7260080000000000    0.9873290000000000 P
   0.8561190000000000    0.2739920000000000    0.4873290000000000 P
   0.2739920000000000    0.8561190000000000    0.5126710000000000 P
   0.8093310000000000    0.7039450000000000    0.2715210000000000 P
   0.7039450000000000    0.8093310000000000    0.7284790000000000 P
   0.9012360000000000    0.6314370000000000    0.8229250000000000 P
   0.6314370000000000    0.9012360000000000    0.1770750000000000 P
   0.2110390000000000    0.1606050000000000    0.6897570000000000 O
   0.1606050000000000    0.2110390000000000    0.3102430000000000 O
   0.3515190000000000    0.0317930000000000    0.5607280000000000 O
   0.0317930000000000    0.3515190000000000    0.4392720000000000 O
   0.2802850000000000    0.2798490000000000    0.8757400000000000 O
   0.2798490000000000    0.2802850000000000    0.1242600000000000 O
   0.0288530000000000    0.6402020000000000    0.7437680000000000 O
   0.6402020000000000    0.0288530000000000    0.2562320000000000 O
   0.4483050000000000    0.2654860000000000    0.2854100000000000 O
   0.2654860000000000    0.4483050000000000    0.7145899999999999 O
   0.7432950000000000    0.9844790000000000    0.7023710000000000 O
   0.9844790000000000    0.7432950000000000    0.2976290000000000 O
   0.2380760000000000    0.5116680000000000    0.3225090000000000 O
   0.5116680000000000    0.2380760000000000    0.6774910000000000 O
   0.1229580000000000    0.6756190000000000    0.1004790000000000 O
   0.6756190000000000    0.1229580000000000    0.8995210000000000 O
   0.0952910000000000    0.8271420000000000    0.5308970000000000 O
   0.8271420000000000    0.0952910000000000    0.4691030000000000 O
   0.2638360000000000    0.6572320000000000    0.9292720000000000 O
   0.6572320000000000    0.2638360000000000    0.0707280000000000 O
   0.3427680000000000    0.7361640000000000    0.5707280000000000 O
   0.7361640000000000    0.3427680000000000    0.4292720000000000 O
   0.9047090000000000    0.1728580000000000    0.0308970000000000 O
   0.1728580000000000    0.9047090000000000    0.9691030000000000 O
   0.8770420000000000    0.3243810000000000    0.6004790000000000 O
   0.3243810000000000    0.8770420000000000    0.3995210000000000 O
   0.7619240000000000    0.4883320000000000    0.8225090000000000 O
   0.4883320000000000    0.7619240000000000    0.1774910000000000 O
   0.0155210000000000    0.2567050000000000    0.7976290000000000 O
   0.2567050000000000    0.0155210000000000    0.2023710000000000 O
   0.5516950000000000    0.7345140000000000    0.7854100000000001 O
   0.7345140000000000    0.5516950000000000    0.2145900000000000 O
   0.9711470000000000    0.3597980000000000    0.2437680000000000 O
   0.3597980000000000    0.9711470000000000    0.7562320000000000 O
   0.7201510000000000    0.7197150000000000    0.6242600000000000 O
   0.7197150000000000    0.7201510000000000    0.3757400000000000 O
   0.6484810000000000    0.9682070000000000    0.0607280000000000 O
   0.9682070000000000    0.6484810000000000    0.9392720000000000 O
   0.8393950000000000    0.7889610000000000    0.8102430000000000 O
   0.7889610000000000    0.8393950000000000    0.1897570000000000 O
