pymatgen with grid density = 1115 / number of atoms
0
Gamma
6 3 1
