pymatgen with grid density = 1328 / number of atoms
0
Gamma
7 2 2
