Li5 Ca9 B7 O21 F2
1.0
   3.6098249999999998    0.0000000000000000    0.0000000000000000
   0.3472390000000000   12.9609410000000000    0.0000000000000000
   0.3490220000000000    6.4503979999999999   11.2425470000000001
Li Ca B O F
5 9 7 21 2
direct
   0.0303870000000000    0.9074770000000000    0.0458350000000000 Li
   0.1004310000000000    0.0626890000000000    0.3664480000000000 Li
   0.0459030000000000    0.3863350000000000    0.8919450000000000 Li
   0.5627220000000001    0.4736660000000000    0.4148960000000000 Li
   0.0594620000000000    0.8092260000000000    0.7532550000000000 Li
   0.0546450000000000    0.2403190000000000    0.6136300000000000 Ca
   0.0837110000000000    0.4861910000000000    0.2163230000000000 Ca
   0.5729190000000000    0.0078070000000000    0.5875620000000000 Ca
   0.5574360000000000    0.7461930000000000    0.9832410000000000 Ca
   0.0406860000000000    0.6368210000000000    0.4715300000000000 Ca
   0.5457970000000000    0.6103710000000000    0.7308580000000000 Ca
   0.6296150000000000    0.2734100000000000    0.1584810000000000 Ca
   0.5350960000000000    0.1817890000000000    0.8861190000000000 Ca
   0.5120010000000000    0.9073180000000000    0.2550290000000000 Ca
   0.0518430000000000    0.9978740000000000    0.8152850000000000 B
   0.0481180000000000    0.8343469999999999    0.5115330000000000 B
   0.0768430000000000    0.5279460000000000    0.9791360000000000 B
   0.5484920000000000    0.7066490000000000    0.2223720000000000 B
   0.0582180000000000    0.1167710000000000    0.1027080000000000 B
   0.5394610000000000    0.4128390000000000    0.6890870000000000 B
   0.5898840000000000    0.2394930000000000    0.3921660000000000 B
   0.6139310000000000    0.1411160000000000    0.3756330000000000 O
   0.5326910000000000    0.3965160000000000    0.8038020000000000 O
   0.5315040000000000    0.8196150000000000    0.1232220000000000 O
   0.5446320000000000    0.6937680000000001    0.3355560000000000 O
   0.5411589999999999    0.3123140000000000    0.6764320000000000 O
   0.5634940000000001    0.2218440000000000    0.5065170000000000 O
   0.5686630000000000    0.6069140000000000    0.2089470000000000 O
   0.5921620000000000    0.3524130000000000    0.2926840000000000 O
   0.5456460000000000    0.5267770000000001    0.5923780000000000 O
   0.1211500000000000    0.4103230000000000    0.0722540000000000 O
   0.0464810000000000    0.7166330000000000    0.6025120000000000 O
   0.0471530000000000    0.0919660000000000    0.8389020000000000 O
   0.0599270000000000    0.0236450000000000    0.6971630000000000 O
   0.0893620000000000    0.9250480000000000    0.5376010000000000 O
   0.0109100000000000    0.8591520000000000    0.3943810000000000 O
   0.0480840000000000    0.8808550000000001    0.9060580000000000 O
   0.0710450000000000    0.6183170000000000    0.0077040000000000 O
   0.0047490000000000    0.0046760000000000    0.1186580000000000 O
   0.9862310000000000    0.2168590000000000    0.9940840000000000 O
   0.1853380000000000    0.1287260000000000    0.1962710000000000 O
   0.0365950000000000    0.5522800000000000    0.8639100000000000 O
   0.0627630000000000    0.4542500000000000    0.4340430000000000 F
   0.5591600000000000    0.7887430000000000    0.7680690000000000 F
