Li4 Sn2 B2 P2 O14
1.0
   6.5070740000000002    0.0000000000000000    0.0000000000000000
   0.0000000000000000    5.1780160000000004    0.0000000000000000
   0.0000000000000000    0.4190940000000000    9.1072810000000004
Li Sn B P O
4 2 2 2 14
direct
   0.4720780000000000    0.7583360000000000    0.8414010000000000 Li
   0.0279220000000000    0.7583360000000000    0.8414010000000000 Li
   0.5279220000000000    0.2416640000000000    0.1585990000000000 Li
   0.9720780000000000    0.2416640000000000    0.1585990000000000 Li
   0.2500000000000000    0.2227180000000000    0.6625540000000000 Sn
   0.7500000000000000    0.7772820000000000    0.3374460000000000 Sn
   0.2500000000000000    0.2664980000000000    0.9424060000000000 B
   0.7500000000000000    0.7335020000000000    0.0575940000000000 B
   0.7500000000000000    0.2752650000000000    0.5703050000000000 P
   0.2500000000000000    0.7247350000000000    0.4296950000000000 P
   0.7500000000000000    0.7090030000000000    0.9137940000000000 O
   0.2500000000000000    0.0277600000000000    0.8692340000000000 O
   0.2500000000000000    0.4784310000000000    0.8333550000000000 O
   0.9357070000000000    0.1929350000000000    0.6662450000000000 O
   0.5642930000000000    0.1929350000000000    0.6662450000000000 O
   0.2500000000000000    0.8509000000000000    0.5805640000000000 O
   0.7500000000000000    0.5741100000000000    0.5373010000000000 O
   0.2500000000000000    0.4258900000000000    0.4626990000000000 O
   0.7500000000000000    0.1491000000000000    0.4194360000000000 O
   0.4357070000000000    0.8070650000000000    0.3337550000000000 O
   0.0642930000000000    0.8070650000000000    0.3337550000000000 O
   0.7500000000000000    0.5215689999999999    0.1666450000000000 O
   0.7500000000000000    0.9722400000000000    0.1307660000000000 O
   0.2500000000000000    0.2909970000000000    0.0862060000000000 O
