pymatgen with grid density = 911 / number of atoms
0
Gamma
5 4 1
