ALGO = Fast
EDIFF = 0.0036000000000000003
ENCUT = 520
IBRION = 2
ISIF = 3
ISMEAR = -5
ISPIN = 2
LASPH = True
LMAXMIX = 4
LORBIT = 11
LREAL = Auto
LWAVE = False
MAGMOM = 4*-0.0 4*0.251 1*0.006 3*0.004 1*0.006 2*0.003 2*0.004 2*0.003 1*0.006 3*0.004 1*0.006 1*0.037 1*0.005 1*0.016 1*0.002 1*0.022 1*0.024 1*0.032 1*0.03 1*0.032 1*0.022 1*0.032 2*0.002 1*0.022 1*0.002 1*0.016 1*0.002 1*0.005 1*0.037 1*0.002 1*0.024 1*0.032 1*0.022 2*0.03 1*0.022 1*0.032 1*0.024 1*0.002 1*0.037 1*0.005 1*0.002 1*0.016 1*0.002 1*0.022 2*0.002 1*0.032 1*0.022 1*0.032 1*0.03 1*0.032 1*0.024 1*0.022 1*0.002 1*0.016 1*0.005 1*0.037
NELM = 100
NSW = 99
PREC = Accurate
SIGMA = 0.05
