pymatgen with grid density = 1359 / number of atoms
0
Gamma
3 4 3
