Li6 Sn2 B4 O12
1.0
  -5.0143540000000000    0.0000000000000000    0.0000000000000000
  -0.0477100000000000   -7.2542359999999997    0.0000000000000000
   0.3603240000000000    2.8345460000000000    7.4842510000000004
Li Sn B O
6 2 4 12
direct
   0.8201680000000000    0.0890740000000000    0.9389710000000000 Li
   0.6805220000000000    0.9429520000000000    0.2522960000000000 Li
   0.6723580000000000    0.2397540000000000    0.6223290000000000 Li
   0.3276420000000000    0.7602460000000000    0.3776710000000000 Li
   0.3194780000000000    0.0570480000000000    0.7477040000000000 Li
   0.1798320000000000    0.9109260000000000    0.0610290000000000 Li
   0.8673999999999999    0.4480090000000000    0.3269280000000000 Sn
   0.1326000000000000    0.5519910000000000    0.6730720000000000 Sn
   0.8336640000000000    0.8669010000000000    0.5732310000000000 B
   0.6571170000000000    0.6852050000000000    0.8968650000000000 B
   0.3428830000000000    0.3147950000000000    0.1031350000000000 B
   0.1663360000000000    0.1330990000000000    0.4267690000000000 B
   0.8954130000000000    0.1681600000000000    0.3927260000000000 O
   0.7769550000000000    0.5176350000000000    0.7760450000000000 O
   0.7960480000000000    0.8409590000000000    0.0102490000000000 O
   0.7162040000000000    0.7414100000000000    0.4063570000000000 O
   0.6922670000000000    0.0089370000000000    0.6905910000000000 O
   0.6263570000000001    0.3157110000000000    0.1087800000000000 O
   0.3736430000000000    0.6842890000000000    0.8912200000000000 O
   0.3077330000000000    0.9910630000000000    0.3094090000000000 O
   0.2837960000000000    0.2585900000000000    0.5936430000000000 O
   0.2039520000000000    0.1590410000000000    0.9897510000000000 O
   0.2230450000000000    0.4823650000000000    0.2239550000000000 O
   0.1045870000000000    0.8318400000000000    0.6072740000000000 O
