Li12 Al12 Si12 O48
1.0
   5.2939990000000003   -9.1694750000000003    0.0000000000000000
   5.2939990000000003    9.1694750000000003    0.0000000000000000
   0.0000000000000000    0.0000000000000000   11.3849730000000005
Li Al Si O
12 12 12 48
direct
   0.5000000000000000    0.0000000000000000    0.0000000000000000 Li
   0.5000000000000000    0.5000000000000000    0.6666670000000000 Li
   0.0000000000000000    0.5000000000000000    0.3333330000000000 Li
   0.0000000000000000    0.0000000000000000    0.5000000000000000 Li
   0.0000000000000000    0.0000000000000000    0.1666670000000000 Li
   0.0000000000000000    0.0000000000000000    0.8333330000000000 Li
   0.5000000000000000    0.0000000000000000    0.3280550000000000 Li
   0.5000000000000000    0.5000000000000000    0.9947220000000000 Li
   0.0000000000000000    0.5000000000000000    0.6613890000000000 Li
   0.5000000000000000    0.0000000000000000    0.6719450000000000 Li
   0.5000000000000000    0.5000000000000000    0.3386110000000000 Li
   0.0000000000000000    0.5000000000000000    0.0052780000000000 Li
   0.2509630000000000    0.2509630000000000    0.1666670000000000 Al
   0.0000000000000000    0.7490370000000000    0.8333330000000000 Al
   0.0000000000000000    0.2509630000000000    0.8333330000000000 Al
   0.2509630000000000    0.0000000000000000    0.5000000000000000 Al
   0.7490370000000000    0.7490370000000000    0.1666670000000000 Al
   0.7490370000000000    0.0000000000000000    0.5000000000000000 Al
   0.2511930000000000    0.5023860000000000    0.5000000000000000 Al
   0.7488070000000000    0.2511930000000000    0.1666670000000000 Al
   0.5023860000000000    0.2511930000000000    0.8333330000000000 Al
   0.4976140000000000    0.7488070000000000    0.8333330000000000 Al
   0.2511930000000000    0.7488070000000000    0.1666670000000000 Al
   0.7488070000000000    0.4976140000000000    0.5000000000000000 Al
   0.2474360000000000    0.0000000000000000    0.0000000000000000 Si
   0.2474360000000000    0.2474360000000000    0.6666670000000000 Si
   0.0000000000000000    0.7525640000000000    0.3333330000000000 Si
   0.0000000000000000    0.2474360000000000    0.3333330000000000 Si
   0.7525640000000000    0.7525640000000000    0.6666670000000000 Si
   0.7525640000000000    0.0000000000000000    0.0000000000000000 Si
   0.2482650000000000    0.4965310000000000    0.0000000000000000 Si
   0.7517350000000000    0.2482650000000000    0.6666670000000000 Si
   0.4965310000000000    0.2482650000000000    0.3333330000000000 Si
   0.5034690000000001    0.7517350000000000    0.3333330000000000 Si
   0.2482650000000000    0.7517350000000000    0.6666670000000000 Si
   0.7517350000000000    0.5034690000000001    0.0000000000000000 Si
   0.8942280000000000    0.2937770000000000    0.2626860000000000 O
   0.5918340000000000    0.3917990000000000    0.4157370000000000 O
   0.6082010000000000    0.2000350000000000    0.7490700000000000 O
   0.7999650000000000    0.4081660000000000    0.0824040000000000 O
   0.2000350000000000    0.5918340000000000    0.0824040000000000 O
   0.4081660000000000    0.7999650000000000    0.2509300000000000 O
   0.4081660000000000    0.6082010000000000    0.4157370000000000 O
   0.3917990000000000    0.7999650000000000    0.7490700000000000 O
   0.6082010000000000    0.4081660000000000    0.9175960000000000 O
   0.7999650000000000    0.3917990000000000    0.5842630000000000 O
   0.2000350000000000    0.6082010000000000    0.5842630000000000 O
   0.3917990000000000    0.5918340000000000    0.9175960000000000 O
   0.5918340000000000    0.2000350000000000    0.2509300000000000 O
   0.3995480000000000    0.2937770000000000    0.7373140000000000 O
   0.7062230000000000    0.1057720000000000    0.0706480000000000 O
   0.8942280000000000    0.6004520000000000    0.4039810000000000 O
   0.1057720000000000    0.3995480000000000    0.4039810000000000 O
   0.6004520000000000    0.8942280000000000    0.9293520000000000 O
   0.6004520000000000    0.7062230000000000    0.7373140000000000 O
   0.3995680000000000    0.3029570000000000    0.2602760000000000 O
   0.7062230000000000    0.6004520000000000    0.5960190000000000 O
   0.1057720000000000    0.7062230000000000    0.2626860000000000 O
   0.2937770000000000    0.3995480000000000    0.5960190000000000 O
   0.3995480000000000    0.1057720000000000    0.9293520000000000 O
   0.1978490000000000    0.0870190000000000    0.0907600000000000 O
   0.1108300000000000    0.1978490000000000    0.7574270000000000 O
   0.0870190000000000    0.8891700000000000    0.4240940000000000 O
   0.9129810000000000    0.1108300000000000    0.4240940000000000 O
   0.8891700000000000    0.8021509999999999    0.7574270000000000 O
   0.1108300000000000    0.9129810000000000    0.9092400000000000 O
   0.8021509999999999    0.8891700000000000    0.5759060000000000 O
   0.8021509999999999    0.9129810000000000    0.0907600000000000 O
   0.0870190000000000    0.1978490000000000    0.2425730000000000 O
   0.9129810000000000    0.8021509999999999    0.2425730000000000 O
   0.8891700000000000    0.0870190000000000    0.9092400000000000 O
   0.1978490000000000    0.1108300000000000    0.5759060000000000 O
   0.3995680000000000    0.0966110000000000    0.4063910000000000 O
   0.3029570000000000    0.3995680000000000    0.0730570000000000 O
   0.0966110000000000    0.6970430000000000    0.7397240000000000 O
   0.9033890000000000    0.3029570000000000    0.7397240000000000 O
   0.6970430000000000    0.6004320000000000    0.0730570000000000 O
   0.3029570000000000    0.9033890000000000    0.5936090000000001 O
   0.6004320000000000    0.6970430000000000    0.2602760000000000 O
   0.6004320000000000    0.9033890000000000    0.4063910000000000 O
   0.0966110000000000    0.3995680000000000    0.9269430000000000 O
   0.9033890000000000    0.6004320000000000    0.9269430000000000 O
   0.6970430000000000    0.0966110000000000    0.5936090000000001 O
   0.2937770000000000    0.8942280000000000    0.0706480000000000 O
