Li10 Sn2 P8 O28
1.0
   7.1627109999999998    0.0000000000000000    0.0000000000000000
   3.0738300000000001    8.1256789999999999    0.0000000000000000
   2.0597880000000002    1.5451600000000001    9.3826490000000007
Li Sn P O
10 2 8 28
direct
   0.3322300000000000    0.1875810000000000    0.2762100000000000 Li
   0.2809180000000000    0.2598730000000000    0.5714440000000000 Li
   0.7505560000000000    0.2691660000000000    0.0937000000000000 Li
   0.0399280000000000    0.4976630000000000    0.1424210000000000 Li
   0.4244670000000000    0.4844700000000000    0.3519390000000000 Li
   0.5755330000000000    0.5155300000000000    0.6480610000000000 Li
   0.9600720000000000    0.5023370000000000    0.8575790000000000 Li
   0.2494440000000000    0.7308340000000000    0.9063000000000000 Li
   0.7190820000000000    0.7401270000000000    0.4285560000000000 Li
   0.6677700000000000    0.8124190000000000    0.7237900000000000 Li
   0.8661180000000001    0.1345670000000000    0.7617270000000000 Sn
   0.1338820000000000    0.8654330000000000    0.2382730000000000 Sn
   0.1678440000000000    0.1291150000000000    0.9691470000000000 P
   0.6960710000000000    0.1018800000000000    0.4579010000000000 P
   0.4071330000000000    0.3452320000000000    0.9451710000000000 P
   0.8823730000000000    0.3672110000000000    0.4297060000000000 P
   0.1176270000000000    0.6327890000000000    0.5702940000000000 P
   0.5928670000000000    0.6547680000000000    0.0548290000000000 P
   0.3039290000000000    0.8981200000000000    0.5420990000000000 P
   0.8321560000000000    0.8708850000000000    0.0308530000000000 P
   0.2125720000000000    0.0513290000000000    0.6173370000000000 O
   0.0962140000000000    0.1534100000000000    0.1266830000000000 O
   0.7828050000000000    0.0498550000000000    0.0479480000000000 O
   0.6835700000000000    0.0559500000000000    0.6224120000000000 O
   0.0097010000000000    0.2544740000000000    0.8738980000000000 O
   0.4966010000000000    0.2241220000000000    0.4104710000000000 O
   0.3693050000000000    0.1804520000000000    0.9153620000000000 O
   0.0841300000000000    0.3677950000000000    0.3425780000000000 O
   0.4526680000000000    0.3129390000000000    0.0966570000000000 O
   0.8581430000000000    0.1995910000000000    0.3996210000000000 O
   0.5901980000000000    0.3516580000000000    0.8281170000000000 O
   0.8776840000000000    0.3422080000000000    0.5939900000000000 O
   0.2163810000000000    0.4965820000000000    0.9235880000000000 O
   0.2992940000000000    0.4798570000000000    0.6066560000000000 O
   0.7007060000000001    0.5201430000000000    0.3933440000000000 O
   0.7836190000000000    0.5034180000000000    0.0764120000000000 O
   0.1223160000000000    0.6577920000000000    0.4060100000000000 O
   0.4098020000000000    0.6483420000000000    0.1718830000000000 O
   0.1418570000000000    0.8004090000000000    0.6003790000000000 O
   0.5473320000000000    0.6870610000000000    0.9033430000000000 O
   0.9158700000000000    0.6322050000000000    0.6574220000000000 O
   0.6306950000000000    0.8195480000000001    0.0846380000000000 O
   0.5033990000000000    0.7758780000000000    0.5895290000000000 O
   0.9902990000000000    0.7455260000000000    0.1261020000000000 O
   0.3164300000000000    0.9440499999999999    0.3775880000000000 O
   0.2171950000000000    0.9501450000000000    0.9520520000000000 O
   0.9037860000000000    0.8465900000000000    0.8733170000000000 O
   0.7874280000000000    0.9486710000000000    0.3826630000000000 O
