ALGO = Fast
EDIFF = 0.0029000000000000002
ENCUT = 520
IBRION = 2
ISIF = 3
ISMEAR = -5
ISPIN = 2
LASPH = True
LMAXMIX = 6
LORBIT = 11
LREAL = Auto
LWAVE = False
MAGMOM = 12*0.0 4*0.108 8*-0.002 2*-0.001 4*0.124 1*0.009 2*0.124 2*0.009 2*0.124 1*0.009 8*0.124 1*0.009 2*0.124 2*0.009 2*0.124 1*0.009 4*0.124
NELM = 100
NSW = 99
PREC = Accurate
SIGMA = 0.05
