pymatgen with grid density = 1214 / number of atoms
0
Gamma
3 5 3
