pymatgen with grid density = 1083 / number of atoms
0
Gamma
2 3 2
