Li4 Si8 Bi12 O36
1.0
  10.7262710000000006    0.0000000000000000    0.0000000000000000
   0.0000000000000000    7.6472189999999998    0.0000000000000000
   0.0000000000000000    0.0818540000000000   10.7249619999999997
Li Si Bi O
4 8 12 36
direct
   0.4602790000000000    0.1259770000000000    0.6456790000000000 Li
   0.0397210000000000    0.1259770000000000    0.1456790000000000 Li
   0.9602790000000000    0.8740230000000000    0.8543210000000000 Li
   0.5397210000000000    0.8740230000000000    0.3543210000000000 Li
   0.1277520000000000    0.1751750000000000    0.6957000000000000 Si
   0.3722480000000000    0.1751750000000000    0.1957000000000000 Si
   0.6278080000000000    0.3954650000000000    0.8104430000000000 Si
   0.8721920000000000    0.3954650000000000    0.3104430000000000 Si
   0.1278080000000000    0.6045350000000000    0.6895570000000000 Si
   0.3721920000000000    0.6045350000000000    0.1895570000000000 Si
   0.6277520000000000    0.8248250000000000    0.8043000000000000 Si
   0.8722480000000000    0.8248250000000000    0.3043000000000000 Si
   0.8023510000000000    0.1186480000000000    0.5907200000000000 Bi
   0.6976490000000000    0.1186480000000000    0.0907200000000000 Bi
   0.9358860000000000    0.3352450000000000    0.8978750000000000 Bi
   0.2994340000000000    0.3656170000000000    0.9093010000000000 Bi
   0.5641140000000000    0.3352450000000000    0.3978750000000000 Bi
   0.2005660000000000    0.3656170000000000    0.4093010000000000 Bi
   0.7994340000000000    0.6343830000000000    0.5906990000000000 Bi
   0.4358860000000000    0.6647550000000000    0.6021250000000000 Bi
   0.7005660000000000    0.6343830000000000    0.0906990000000000 Bi
   0.0641140000000000    0.6647550000000000    0.1021250000000000 Bi
   0.3023510000000000    0.8813520000000000    0.9092800000000000 Bi
   0.1976490000000000    0.8813520000000000    0.4092800000000000 Bi
   0.9967500000000000    0.1106000000000000    0.7594060000000000 O
   0.5032500000000000    0.1106000000000000    0.2594060000000000 O
   0.6156570000000000    0.1231680000000000    0.5199660000000000 O
   0.2512610000000000    0.1047500000000000    0.7720000000000000 O
   0.8843430000000000    0.1231680000000000    0.0199660000000000 O
   0.2487390000000000    0.1047500000000000    0.2720000000000000 O
   0.1349520000000000    0.1497920000000000    0.5440960000000000 O
   0.3650480000000000    0.1497920000000000    0.0440960000000000 O
   0.4958080000000000    0.3136110000000000    0.7737070000000000 O
   0.0041920000000000    0.3136110000000000    0.2737070000000000 O
   0.3864630000000000    0.3576970000000000    0.4979270000000000 O
   0.7487090000000000    0.3287560000000000    0.7266740000000000 O
   0.1135370000000000    0.3576970000000000    0.9979270000000000 O
   0.7512910000000000    0.3287560000000000    0.2266740000000000 O
   0.6650230000000000    0.3847370000000000    0.9601930000000000 O
   0.1307300000000000    0.3895090000000000    0.7237160000000000 O
   0.8349770000000000    0.3847370000000000    0.4601930000000000 O
   0.3692700000000000    0.3895090000000000    0.2237160000000000 O
   0.6307300000000000    0.6104910000000000    0.7762840000000000 O
   0.1650230000000000    0.6152630000000000    0.5398070000000000 O
   0.8692700000000000    0.6104910000000000    0.2762840000000000 O
   0.3349770000000000    0.6152630000000000    0.0398070000000000 O
   0.2487090000000000    0.6712440000000000    0.7733260000000000 O
   0.8864630000000000    0.6423030000000000    0.0020730000000000 O
   0.2512910000000000    0.6712440000000000    0.2733260000000000 O
   0.6135370000000000    0.6423030000000000    0.5020730000000000 O
   0.9958080000000000    0.6863890000000000    0.7262930000000000 O
   0.5041920000000000    0.6863890000000000    0.2262930000000000 O
   0.6349520000000000    0.8502080000000000    0.9559040000000000 O
   0.8650480000000000    0.8502080000000000    0.4559040000000000 O
   0.7512610000000000    0.8952500000000000    0.7280000000000000 O
   0.1156570000000000    0.8768319999999999    0.9800340000000000 O
   0.7487390000000000    0.8952500000000000    0.2280000000000000 O
   0.3843430000000000    0.8768319999999999    0.4800340000000000 O
   0.4967500000000000    0.8894000000000000    0.7405940000000000 O
   0.0032500000000000    0.8894000000000000    0.2405940000000000 O
