Li1 Ce1 Mg6 O8
1.0
   8.9656660299999995    0.0000000000000000    0.0000000000000000
   0.0000000000000000    4.4088902399999998    0.0000000000000000
   0.0000000000000000    0.0000000000000000    4.4088902399999998
Li Ce Mg O
1 1 6 8
direct
   0.0000000000000000    0.0000000000000000   -0.0000000000000000 Li
   0.0000000000000000    0.5000000000000000    0.5000000000000000 Ce
   0.5000000000000000    0.0000000000000000   -0.0000000000000000 Mg
   0.5000000000000000    0.5000000000000000    0.5000000000000000 Mg
   0.2675409600000000    0.0000000000000000    0.5000000000000000 Mg
   0.7324590400000000   -0.0000000000000000    0.5000000000000000 Mg
   0.2675409600000000    0.5000000000000000    0.0000000000000000 Mg
   0.7324590400000000    0.5000000000000000   -0.0000000000000000 Mg
   0.2654479200000000    0.0000000000000000   -0.0000000000000000 O
   0.7345520800000001   -0.0000000000000000    0.0000000000000000 O
   0.2685294200000000    0.5000000000000000    0.5000000000000000 O
   0.7314705800000000    0.5000000000000000    0.5000000000000000 O
   0.0000000000000000    0.0000000000000000    0.5000000000000000 O
   0.5000000000000000    0.0000000000000000    0.5000000000000000 O
   0.0000000000000000    0.5000000000000000   -0.0000000000000000 O
   0.5000000000000000    0.5000000000000000   -0.0000000000000000 O
