ALGO = Fast
EDIFF = 0.00165
ENCUT = 520
IBRION = 2
ISIF = 3
ISMEAR = -5
ISPIN = 2
LASPH = True
LMAXMIX = 6
LORBIT = 11
LREAL = Auto
LWAVE = False
MAGMOM = 2*0.0 5*-0.004 6*-0.0 3*-0.004 1*0.016 2*0.024 1*0.13 1*0.152 3*0.151 1*0.255 2*0.254 1*0.255 2*0.186 1*0.129 1*0.13 1*0.129
NELM = 100
NSW = 99
PREC = Accurate
SIGMA = 0.05
