ALGO = Fast
EDIFF = 0.00030000000000000003
ENCUT = 520
IBRION = 2
ISIF = 3
ISMEAR = -5
ISPIN = 2
LASPH = True
LMAXMIX = 6
LORBIT = 11
LREAL = Auto
LWAVE = False
MAGMOM = 1*0.072 1*5.308 1*5.208 1*-0.067 1*-0.123 1*-0.116
NELM = 100
NSW = 99
PREC = Accurate
SIGMA = 0.05
