pymatgen with grid density = 822 / number of atoms
0
Gamma
6 6 3
