Ba4 Li2 U2 O12
1.0
   5.9875379999999998    0.0000000000000000    0.0000000000000000
   0.0000000000000000    6.0381460000000002    0.0000000000000000
   0.0000000000000000    0.0000000000000000    8.4787970000000001
Ba Li U O
4 2 2 12
direct
   0.0000000000000000    0.4965400000000000    0.2528820000000000 Ba
   0.0000000000000000    0.5034600000000000    0.7471179999999999 Ba
   0.5000000000000000    0.9965400000000000    0.2471180000000000 Ba
   0.5000000000000000    0.0034600000000000    0.7528820000000001 Ba
   0.0000000000000000    0.0000000000000000    0.0000000000000000 Li
   0.5000000000000000    0.5000000000000000    0.5000000000000000 Li
   0.0000000000000000    0.0000000000000000    0.5000000000000000 U
   0.5000000000000000    0.5000000000000000    0.0000000000000000 U
   0.5000000000000000    0.5142710000000000    0.2426090000000000 O
   0.5000000000000000    0.4857290000000000    0.7573910000000000 O
   0.0000000000000000    0.0142710000000000    0.2573910000000000 O
   0.0000000000000000    0.9857290000000000    0.7426090000000000 O
   0.2443080000000000    0.2426720000000000    0.5036500000000000 O
   0.2443080000000000    0.7573280000000000    0.4963500000000000 O
   0.7443080000000000    0.7426720000000000    0.9963500000000000 O
   0.7443080000000000    0.2573280000000000    0.0036500000000000 O
   0.2556920000000000    0.2573280000000000    0.0036500000000000 O
   0.2556920000000000    0.7426720000000000    0.9963500000000000 O
   0.7556920000000000    0.7573280000000000    0.4963500000000000 O
   0.7556920000000000    0.2426720000000000    0.5036500000000000 O
