pymatgen with grid density = 1227 / number of atoms
0
Gamma
2 5 4
