ALGO = Fast
EDIFF = 0.0011
ENCUT = 520
IBRION = 2
ISIF = 3
ISMEAR = -5
ISPIN = 2
LASPH = True
LORBIT = 11
LREAL = Auto
LWAVE = False
MAGMOM = 2*0.0 1*-0.001 2*-0.0 2*-0.002 1*-0.001 1*0.011 1*0.004 2*0.021 1*0.041 1*0.008 1*0.002 1*0.006 1*0.059 1*0.026 1*0.02 1*0.019 1*0.713 1*0.706
NELM = 100
NSW = 99
PREC = Accurate
SIGMA = 0.05
