pymatgen with grid density = 1319 / number of atoms
0
Gamma
1 3 2
