Li4 Ho24 B12 O56
1.0
  15.5530019999999993    0.0000000000000000    0.0000000000000000
   0.0000000000000000    8.3937139999999992    0.0000000000000000
   0.0000000000000000    8.1055810000000008    8.8532340000000005
Li Ho B O
4 24 12 56
direct
   0.6039639999999999    0.8801740000000000    0.4393550000000000 Li
   0.3960360000000000    0.1198260000000000    0.5606449999999999 Li
   0.1039640000000000    0.1198260000000000    0.0606450000000000 Li
   0.8960360000000001    0.8801740000000000    0.9393550000000001 Li
   0.8221190000000000    0.5502370000000000    0.3072320000000000 Ho
   0.1778810000000000    0.4497630000000000    0.6927680000000001 Ho
   0.3221190000000000    0.4497630000000000    0.1927680000000000 Ho
   0.6778810000000000    0.5502370000000000    0.8072319999999999 Ho
   0.3259830000000000    0.9842080000000000    0.0555610000000000 Ho
   0.6740170000000000    0.0157920000000000    0.9444390000000000 Ho
   0.8259830000000000    0.0157920000000000    0.4444390000000000 Ho
   0.1740170000000000    0.9842080000000000    0.5555610000000000 Ho
   0.3560950000000000    0.8484100000000000    0.4246240000000000 Ho
   0.6439049999999999    0.1515900000000000    0.5753760000000000 Ho
   0.8560950000000001    0.1515900000000000    0.0753760000000000 Ho
   0.1439050000000000    0.8484100000000000    0.9246240000000000 Ho
   0.5132920000000000    0.6657900000000000    0.2824280000000000 Ho
   0.4867080000000000    0.3342100000000000    0.7175720000000000 Ho
   0.0132920000000000    0.3342100000000000    0.2175720000000000 Ho
   0.9867080000000000    0.6657900000000000    0.7824280000000000 Ho
   0.5038880000000000    0.2390710000000000    0.0612030000000000 Ho
   0.4961120000000000    0.7609290000000000    0.9387970000000000 Ho
   0.0038880000000000    0.7609290000000000    0.4387970000000000 Ho
   0.9961120000000000    0.2390710000000000    0.5612030000000000 Ho
   0.6659210000000000    0.4127560000000000    0.1655270000000000 Ho
   0.3340790000000000    0.5872440000000000    0.8344730000000000 Ho
   0.1659210000000000    0.5872440000000000    0.3344730000000000 Ho
   0.8340790000000000    0.4127560000000000    0.6655270000000000 Ho
   0.8269930000000000    0.5438840000000000    0.0272910000000000 B
   0.1730070000000000    0.4561160000000000    0.9727090000000000 B
   0.3269930000000000    0.4561160000000000    0.4727090000000000 B
   0.6730070000000000    0.5438840000000000    0.5272910000000000 B
   0.9994990000000000    0.7907490000000000    0.1453050000000000 B
   0.0005010000000000    0.2092510000000000    0.8546950000000000 B
   0.4994990000000000    0.2092510000000000    0.3546950000000000 B
   0.5005010000000000    0.7907490000000000    0.6453050000000000 B
   0.6929450000000000    0.9581180000000000    0.2214980000000000 B
   0.3070550000000000    0.0418820000000000    0.7785020000000000 B
   0.1929450000000000    0.0418820000000000    0.2785020000000000 B
   0.8070550000000000    0.9581180000000000    0.7214980000000000 B
   0.7514350000000000    0.8825890000000000    0.1773690000000000 O
   0.2485650000000000    0.1174110000000000    0.8226310000000000 O
   0.2514350000000000    0.1174110000000000    0.3226310000000000 O
   0.7485650000000000    0.8825890000000000    0.6773690000000000 O
   0.4665070000000000    0.6963320000000000    0.5933370000000000 O
   0.5334930000000000    0.3036680000000000    0.4066630000000000 O
   0.9665070000000000    0.3036680000000000    0.9066630000000000 O
   0.0334930000000000    0.6963320000000000    0.0933370000000000 O
   0.4206620000000000    0.9349560000000000    0.2210140000000000 O
   0.5793380000000000    0.0650440000000000    0.7789860000000000 O
   0.9206620000000000    0.0650440000000000    0.2789860000000000 O
   0.0793380000000000    0.9349560000000000    0.7210140000000000 O
   0.9142300000000000    0.8534210000000000    0.1183290000000000 O
   0.0857700000000000    0.1465790000000000    0.8816710000000000 O
   0.4142300000000000    0.1465790000000000    0.3816710000000000 O
   0.5857700000000000    0.8534210000000000    0.6183290000000000 O
   0.9127500000000000    0.5248330000000000    0.0090680000000000 O
   0.0872500000000000    0.4751670000000000    0.9909320000000000 O
   0.4127500000000000    0.4751670000000000    0.4909320000000000 O
   0.5872500000000000    0.5248330000000000    0.5090680000000000 O
   0.7952730000000000    0.6407450000000000    0.0769250000000000 O
   0.2047270000000000    0.3592550000000000    0.9230750000000000 O
   0.2952730000000000    0.3592550000000000    0.4230750000000000 O
   0.7047270000000000    0.6407450000000000    0.5769250000000000 O
   0.4483540000000000    0.8210330000000000    0.7222150000000001 O
   0.5516460000000000    0.1789670000000000    0.2777850000000000 O
   0.9483540000000000    0.1789670000000000    0.7777849999999999 O
   0.0516460000000000    0.8210330000000000    0.2222150000000000 O
   0.5981970000000000    0.7021340000000000    0.1053220000000000 O
   0.4018030000000000    0.2978660000000000    0.8946780000000000 O
   0.0981970000000000    0.2978660000000000    0.3946780000000000 O
   0.9018030000000000    0.7021340000000000    0.6053220000000000 O
   0.9104670000000000    0.5271490000000000    0.4639590000000000 O
   0.0895330000000000    0.4728510000000000    0.5360410000000000 O
   0.4104670000000000    0.4728510000000000    0.0360410000000000 O
   0.5895330000000000    0.5271490000000000    0.9639590000000000 O
   0.4145460000000000    0.7136960000000000    0.1240710000000000 O
   0.5854540000000000    0.2863040000000000    0.8759290000000000 O
   0.9145460000000000    0.2863040000000000    0.3759290000000000 O
   0.0854540000000000    0.7136960000000000    0.6240710000000000 O
   0.2317850000000000    0.7237200000000000    0.1222430000000000 O
   0.7682150000000000    0.2762800000000000    0.8777570000000000 O
   0.7317850000000000    0.2762800000000000    0.3777570000000000 O
   0.2682150000000000    0.7237200000000000    0.6222430000000000 O
   0.2252170000000000    0.9463660000000000    0.2278370000000000 O
   0.7747830000000000    0.0536340000000000    0.7721630000000000 O
   0.7252170000000000    0.0536340000000000    0.2721630000000000 O
   0.2747830000000000    0.9463660000000000    0.7278370000000000 O
   0.6063210000000000    0.9478810000000000    0.2006110000000000 O
   0.3936790000000000    0.0521190000000000    0.7993890000000000 O
   0.1063210000000000    0.0521190000000000    0.2993890000000000 O
   0.8936790000000000    0.9478810000000000    0.7006110000000000 O
   0.7673370000000000    0.4468130000000000    0.0032310000000000 O
   0.2326630000000000    0.5531870000000000    0.9967690000000000 O
   0.2673370000000000    0.5531870000000000    0.4967690000000000 O
   0.7326630000000000    0.4468130000000000    0.5032310000000000 O
