ALGO = Fast
EDIFF = 0.001
ENCUT = 520
IBRION = 2
ISIF = 3
ISMEAR = -5
ISPIN = 2
LASPH = True
LMAXMIX = 4
LORBIT = 11
LREAL = Auto
LWAVE = False
MAGMOM = 4*-0.005 2*-0.003 2*-0.019 4*0.145 8*0.146
NELM = 100
NSW = 99
PREC = Accurate
SIGMA = 0.05
