Sr4 Li2 Te2 O12
1.0
   0.0000000000000000   -5.6796650000000000    0.0000000000000000
  -4.6409039999999999    0.0000000000000000    3.2735889999999999
  -4.6417859999999997    0.0000000000000000   -6.6014270000000002
Sr Li Te O
4 2 2 12
direct
   0.5009850000000000    0.0022800000000000    0.7499440000000001 Sr
   0.4990150000000000    0.9977200000000001    0.2500560000000000 Sr
   0.0009850000000000    0.4977200000000000    0.7500559999999999 Sr
   0.9990150000000000    0.5022799999999999    0.2499440000000000 Sr
   0.0000000000000000    0.0000000000000000    0.5000000000000000 Li
   0.5000000000000000    0.5000000000000000    0.0000000000000000 Li
   0.0000000000000000    0.0000000000000000    0.0000000000000000 Te
   0.5000000000000000    0.5000000000000000    0.5000000000000000 Te
   0.7764489999999999    0.7431870000000000    0.9958830000000000 O
   0.2235510000000000    0.2568130000000000    0.0041170000000000 O
   0.2764490000000000    0.7568130000000000    0.5041170000000000 O
   0.7235510000000001    0.2431870000000000    0.4958830000000000 O
   0.2564060000000000    0.7760770000000000    0.9967130000000000 O
   0.7435940000000000    0.2239230000000000    0.0032870000000000 O
   0.7564060000000000    0.7239230000000000    0.5032870000000000 O
   0.2435940000000000    0.2760770000000000    0.4967130000000000 O
   0.9998970000000000    0.0086890000000000    0.7605590000000000 O
   0.0001030000000000    0.9913110000000001    0.2394410000000000 O
   0.4998970000000000    0.4913110000000000    0.7394410000000000 O
   0.5001030000000000    0.5086889999999999    0.2605590000000000 O
