Li6 Sn2 B10 O20
1.0
   6.8428709999999997    0.0000000000000000    0.0000000000000000
   2.2141380000000002    6.8907800000000003    0.0000000000000000
   2.2582149999999999    0.3174740000000000    9.3547060000000002
Li Sn B O
6 2 10 20
direct
   0.1501120000000000    0.5723180000000000    0.2692130000000000 Li
   0.7393320000000000    0.0180850000000000    0.1688450000000000 Li
   0.0438510000000000    0.1722070000000000    0.4730080000000000 Li
   0.9561490000000000    0.8277930000000000    0.5269920000000000 Li
   0.2606680000000000    0.9819150000000000    0.8311550000000000 Li
   0.8498880000000000    0.4276820000000000    0.7307870000000000 Li
   0.2296250000000000    0.5350540000000000    0.8636930000000000 Sn
   0.7703750000000000    0.4649460000000000    0.1363070000000000 Sn
   0.2551620000000000    0.8539500000000000    0.0950560000000000 B
   0.3480920000000000    0.9059560000000000    0.3210350000000000 B
   0.3479990000000000    0.7795810000000000    0.5753580000000000 B
   0.2038190000000000    0.1853120000000000    0.1580540000000000 B
   0.6862680000000000    0.7454710000000000    0.4083670000000000 B
   0.3137320000000000    0.2545290000000000    0.5916330000000000 B
   0.7961810000000000    0.8146880000000000    0.8419460000000000 B
   0.6520010000000001    0.2204190000000000    0.4246420000000000 B
   0.6519080000000000    0.0940440000000000    0.6789650000000000 B
   0.7448380000000000    0.1460500000000000    0.9049440000000000 B
   0.2149670000000000    0.7495570000000000    0.0033960000000000 O
   0.2382530000000000    0.8750760000000000    0.4701230000000000 O
   0.3004890000000000    0.7824810000000000    0.2258300000000000 O
   0.2362690000000000    0.7836140000000000    0.7122610000000000 O
   0.1160700000000000    0.3801380000000000    0.1351300000000000 O
   0.5754730000000000    0.8645530000000000    0.3089830000000000 O
   0.1060700000000000    0.3015100000000000    0.6130000000000000 O
   0.7436990000000000    0.8850430000000000    0.7135240000000000 O
   0.5623010000000001    0.6877020000000000    0.5357180000000000 O
   0.7599570000000000    0.9492130000000000    0.9479150000000000 O
   0.2400430000000000    0.0507870000000000    0.0520850000000000 O
   0.4376990000000000    0.3122980000000000    0.4642820000000000 O
   0.2563010000000000    0.1149570000000000    0.2864760000000000 O
   0.8939300000000000    0.6984900000000001    0.3870000000000000 O
   0.4245270000000000    0.1354470000000000    0.6910170000000000 O
   0.8839300000000000    0.6198620000000000    0.8648700000000000 O
   0.7637310000000000    0.2163860000000000    0.2877390000000000 O
   0.6995110000000000    0.2175190000000000    0.7741700000000000 O
   0.7617470000000000    0.1249240000000000    0.5298770000000000 O
   0.7850330000000000    0.2504430000000000    0.9966040000000000 O
