Li12 Tm12 Te8 O48
1.0
  -6.1541188699999996   -6.1541188699999996    6.1541188699999996
  -6.1541188699999996    6.1541188699999996   -6.1541188699999996
   6.1541188699999996   -6.1541188699999996   -6.1541188699999996
Li Tm Te O
12 12 8 48
direct
   0.6250000000000000    0.3750000000000000    0.7500000000000000 Li
   0.3750000000000000    0.6250000000000000    0.2500000000000000 Li
   0.8750000000000000    0.1250000000000000    0.2500000000000000 Li
   0.3750000000000000    0.7500000000000000    0.6250000000000000 Li
   0.6250000000000000    0.2500000000000000    0.3750000000000000 Li
   0.1250000000000000    0.8750000000000000    0.7500000000000000 Li
   0.1250000000000000    0.2500000000000000    0.8750000000000000 Li
   0.8750000000000000    0.7500000000000000    0.1250000000000000 Li
   0.7500000000000000    0.6250000000000000    0.3750000000000000 Li
   0.2500000000000000    0.3750000000000000    0.6250000000000000 Li
   0.2500000000000000    0.8750000000000000    0.1250000000000000 Li
   0.7500000000000000    0.1250000000000000    0.8750000000000000 Li
   0.8750000000000000    0.6250000000000000    0.7500000000000000 Tm
   0.1250000000000000    0.3750000000000000    0.2500000000000000 Tm
   0.6250000000000000    0.8750000000000000    0.2500000000000000 Tm
   0.6250000000000000    0.7500000000000000    0.8750000000000000 Tm
   0.8750000000000000    0.2500000000000000    0.6250000000000000 Tm
   0.3750000000000000    0.1250000000000000    0.7500000000000000 Tm
   0.3750000000000000    0.2500000000000000    0.1250000000000000 Tm
   0.1250000000000000    0.7500000000000000    0.3750000000000000 Tm
   0.7500000000000000    0.8750000000000000    0.6250000000000000 Tm
   0.2500000000000000    0.1250000000000000    0.3750000000000000 Tm
   0.2500000000000000    0.6250000000000000    0.8750000000000000 Tm
   0.7500000000000000    0.3750000000000000    0.1250000000000000 Tm
  -0.0000000000000000    0.0000000000000000    0.0000000000000000 Te
   0.5000000000000000    0.0000000000000000    0.5000000000000000 Te
   0.5000000000000000    0.5000000000000000    0.0000000000000000 Te
  -0.0000000000000000    0.0000000000000000    0.5000000000000000 Te
  -0.0000000000000000    0.5000000000000000    0.5000000000000000 Te
   0.5000000000000000    0.5000000000000000    0.5000000000000000 Te
   0.5000000000000000    0.0000000000000000    0.0000000000000000 Te
  -0.0000000000000000    0.5000000000000000    0.0000000000000000 Te
   0.7009841900000000    0.6227813300000000    0.5289511099999999 O
   0.2990158100000000    0.3772186700000000    0.4710488900000000 O
   0.7990158100000000    0.8279669100000000    0.4217971400000000 O
   0.4061697700000000    0.8772186700000000    0.0782028600000000 O
   0.6227813300000000    0.5289511099999999    0.7009841900000000 O
   0.7009841900000000    0.0782028600000000    0.6720330900000000 O
   0.2009841900000000    0.1720330900000000    0.5782028600000000 O
   0.5938302300000000    0.1227813300000000    0.9217971400000000 O
   0.3772186700000000    0.4710488900000000    0.2990158100000000 O
   0.2990158100000000    0.9217971400000000    0.3279669100000000 O
   0.0938302300000000    0.6720330900000000    0.9710488900000001 O
   0.8279669100000000    0.4217971400000000    0.7990158100000000 O
   0.7990158100000000    0.9710488900000001    0.8772186700000000 O
   0.9061697700000000    0.3279669100000000    0.0289511100000000 O
   0.1720330900000000    0.5782028600000000    0.2009841900000000 O
   0.2009841900000000    0.0289511100000000    0.1227813300000000 O
   0.8772186700000000    0.0782028600000000    0.4061697700000000 O
   0.4061697700000000    0.5289511099999999    0.8279669100000000 O
   0.1227813300000000    0.9217971400000000    0.5938302300000000 O
   0.5938302300000000    0.4710488900000000    0.1720330900000000 O
   0.6720330900000000    0.9710488900000001    0.0938302300000000 O
   0.0938302300000000    0.4217971400000000    0.6227813300000000 O
   0.3279669100000000    0.0289511100000000    0.9061697700000000 O
   0.9061697700000000    0.5782028600000000    0.3772186700000000 O
   0.5289511099999999    0.7009841900000000    0.6227813300000000 O
   0.6227813300000000    0.0938302300000000    0.4217971400000000 O
   0.4710488900000000    0.2990158100000000    0.3772186700000000 O
   0.3772186700000000    0.9061697700000000    0.5782028600000000 O
   0.0782028600000000    0.4061697700000000    0.8772186700000000 O
   0.8772186700000000    0.7990158100000000    0.9710488900000001 O
   0.9217971400000000    0.5938302300000000    0.1227813300000000 O
   0.1227813300000000    0.2009841900000000    0.0289511100000000 O
   0.9710488900000001    0.0938302300000000    0.6720330900000000 O
   0.6720330900000000    0.7009841900000000    0.0782028600000000 O
   0.0289511100000000    0.9061697700000000    0.3279669100000000 O
   0.3279669100000000    0.2990158100000000    0.9217971400000000 O
   0.4217971400000000    0.7990158100000000    0.8279669100000000 O
   0.8279669100000000    0.4061697700000000    0.5289511099999999 O
   0.5782028600000000    0.2009841900000000    0.1720330900000000 O
   0.1720330900000000    0.5938302300000000    0.4710488900000000 O
   0.0782028600000000    0.6720330900000000    0.7009841900000000 O
   0.9217971400000000    0.3279669100000000    0.2990158100000000 O
   0.9710488900000001    0.8772186700000000    0.7990158100000000 O
   0.0289511100000000    0.1227813300000000    0.2009841900000000 O
   0.4217971400000000    0.6227813300000000    0.0938302300000000 O
   0.5782028600000000    0.3772186700000000    0.9061697700000000 O
   0.5289511099999999    0.8279669100000000    0.4061697700000000 O
   0.4710488900000000    0.1720330900000000    0.5938302300000000 O
