pymatgen with grid density = 797 / number of atoms
0
Gamma
3 3 2
