Li1 La4 Al1 O8
1.0
   2.6912560000000001   -6.3480090000000002    0.0000000000000000
   2.6912560000000001    6.3480090000000002    0.0000000000000000
   0.0000000000000000    0.0000000000000000    5.3949330000000000
Li La Al O
1 4 1 8
direct
   0.0000000000000000    0.0000000000000000    0.0000000000000000 Li
   0.3628960000000000    0.6371040000000000    0.0000000000000000 La
   0.8638710000000001    0.1361290000000000    0.5000000000000000 La
   0.1361290000000000    0.8638710000000001    0.5000000000000000 La
   0.6371040000000000    0.3628960000000000    0.0000000000000000 La
   0.5000000000000000    0.5000000000000000    0.5000000000000000 Al
   0.1803610000000000    0.8196390000000000    0.0000000000000000 O
   0.6704080000000000    0.3295920000000000    0.5000000000000000 O
   0.3295920000000000    0.6704080000000000    0.5000000000000000 O
   0.8196390000000000    0.1803610000000000    0.0000000000000000 O
   0.2573930000000000    0.2573930000000000    0.2608320000000000 O
   0.7426070000000000    0.7426070000000000    0.7391680000000000 O
   0.2573930000000000    0.2573930000000000    0.7391680000000000 O
   0.7426070000000000    0.7426070000000000    0.2608320000000000 O
