Li4 Si4 P4 O20
1.0
   0.0000000000000000    6.1085279999999997    0.0000000000000000
   0.0000000000000000    0.0000000000000000    7.3707019999999996
   6.6403949999999998    0.0000000000000000    0.0000000000000000
Li Si P O
4 4 4 20
direct
   0.0000000000000000    0.0000000000000000    0.0000000000000000 Li
   0.5000000000000000    0.5000000000000000    0.5000000000000000 Li
   0.5000000000000000    0.0000000000000000    0.0000000000000000 Li
   0.0000000000000000    0.5000000000000000    0.5000000000000000 Li
   0.2500000000000000    0.7711850000000000    0.6399560000000000 Si
   0.2500000000000000    0.7288150000000000    0.1399560000000000 Si
   0.7500000000000000    0.2288150000000000    0.3600440000000000 Si
   0.7500000000000000    0.2711850000000000    0.8600440000000000 Si
   0.7500000000000000    0.8844610000000001    0.6210050000000000 P
   0.7500000000000000    0.6155389999999999    0.1210050000000000 P
   0.2500000000000000    0.1155390000000000    0.3789950000000000 P
   0.2500000000000000    0.3844610000000000    0.8789950000000000 P
   0.7500000000000000    0.0153470000000000    0.8048700000000000 O
   0.7500000000000000    0.4846530000000000    0.3048700000000000 O
   0.2500000000000000    0.9846530000000000    0.1951300000000000 O
   0.2500000000000000    0.5153470000000000    0.6951300000000000 O
   0.5506760000000001    0.7572910000000000    0.6306000000000000 O
   0.9493239999999999    0.7427090000000000    0.1306000000000000 O
   0.0506760000000000    0.2427090000000000    0.3694000000000000 O
   0.4493240000000000    0.2572910000000000    0.8694000000000000 O
   0.4493240000000000    0.2427090000000000    0.3694000000000000 O
   0.0506760000000000    0.2572910000000000    0.8694000000000000 O
   0.9493239999999999    0.7572910000000000    0.6306000000000000 O
   0.5506760000000001    0.7427090000000000    0.1306000000000000 O
   0.7500000000000000    0.9981110000000000    0.4263490000000000 O
   0.7500000000000000    0.5018890000000000    0.9263490000000000 O
   0.2500000000000000    0.0018890000000000    0.5736510000000000 O
   0.2500000000000000    0.4981110000000000    0.0736510000000000 O
   0.2500000000000000    0.8194860000000000    0.8920230000000000 O
   0.2500000000000000    0.6805140000000000    0.3920230000000000 O
   0.7500000000000000    0.1805140000000000    0.1079770000000000 O
   0.7500000000000000    0.3194860000000000    0.6079770000000000 O
