Li9 La12 Sn8 O48
1.0
  -6.6274540000000002    6.6274540000000002    6.4433309999999997
   6.6274540000000002   -6.6274540000000002    6.4433309999999997
   6.6274540000000002    6.6274540000000002   -6.4433309999999997
Li La Sn O
9 12 8 48
direct
   0.2506040000000000    0.6257900000000000    0.1227190000000000 Li
   0.5030710000000000    0.1278850000000000    0.8772810000000000 Li
   0.8721150000000000    0.7493960000000000    0.3751860000000000 Li
   0.3742100000000000    0.4969290000000000    0.6248140000000000 Li
   0.2500000000000000    0.7500000000000000    0.5000000000000000 Li
   0.0017170000000000    0.1251980000000000    0.3745180000000000 Li
   0.7506800000000000    0.6271980000000000    0.6254820000000000 Li
   0.3728020000000000    0.9982830000000000    0.1234820000000000 Li
   0.8748020000000000    0.2493200000000000    0.8765180000000000 Li
   0.9978770000000000    0.4978770000000000    0.5000000000000000 La
   0.7496880000000000    0.7496880000000000    0.0000000000000000 La
   0.9980760000000000    0.6261840000000000    0.8739690000000000 La
   0.7522150000000000    0.1241070000000000    0.1260310000000000 La
   0.8787440000000000    0.5004230000000000    0.1310840000000000 La
   0.3693390000000000    0.7476600000000000    0.8689160000000000 La
   0.2503120000000000    0.2503120000000000    0.0000000000000000 La
   0.5021230000000000    0.0021230000000000    0.5000000000000000 La
   0.2523400000000000    0.1212560000000000    0.6216790000000000 La
   0.4995770000000000    0.6306610000000000    0.3783210000000000 La
   0.3738160000000000    0.2477850000000000    0.3718920000000000 La
   0.8758930000000000    0.0019240000000000    0.6281080000000000 La
   0.1277050000000000    0.8687400000000000    0.7486750000000000 Sn
   0.1200650000000000    0.3790300000000000    0.2513250000000000 Sn
   0.6247790000000000    0.3741310000000000    0.7500630000000000 Sn
   0.6240680000000000    0.8747170000000000    0.2499370000000000 Sn
   0.1252830000000000    0.3752210000000000    0.7493520000000000 Sn
   0.1312600000000000    0.8799350000000000    0.2589650000000000 Sn
   0.6258690000000000    0.3759320000000000    0.2506480000000000 Sn
   0.6209700000000000    0.8722950000000000    0.7410350000000000 Sn
   0.2181770000000000    0.4989180000000000    0.6683000000000000 O
   0.8306180000000000    0.5498769999999999    0.3317000000000000 O
   0.9215179999999999    0.7512040000000000    0.2177370000000000 O
   0.5334680000000001    0.7037810000000000    0.7822630000000000 O
   0.0049290000000000    0.8349930000000000    0.0518980000000000 O
   0.9601930000000000    0.4136190000000000    0.6692150000000000 O
   0.7444030000000000    0.2909780000000000    0.3307850000000000 O
   0.7830950000000000    0.9530310000000000    0.9481020000000000 O
   0.6570190000000000    0.2800310000000000    0.0822890000000000 O
   0.0946670000000000    0.6772270000000000    0.1259820000000000 O
   0.1977420000000000    0.5747300000000000    0.9177110000000001 O
   0.5512450000000000    0.9686850000000000    0.8740180000000000 O
   0.0349960000000000    0.2506750000000000    0.8317369999999999 O
   0.4189380000000000    0.2032590000000000    0.1682630000000000 O
   0.3326630000000000    0.0021710000000000    0.2830730000000000 O
   0.7190980000000000    0.0495900000000000    0.7169270000000000 O
   0.2490180000000000    0.9048920000000000    0.4551120000000000 O
   0.2884490000000000    0.3338120000000000    0.8305230000000000 O
   0.5032890000000000    0.4579260000000000    0.1694770000000000 O
   0.4497800000000000    0.7939060000000000    0.5448880000000000 O
   0.5921440000000000    0.4706480000000000    0.4177270000000000 O
   0.1542040000000000    0.0780850000000000    0.3746220000000000 O
   0.0529220000000000    0.1744170000000000    0.5822730000000000 O
   0.7034629999999999    0.7795820000000000    0.6253780000000000 O
   0.0313150000000000    0.9053330000000001    0.5825600000000000 O
   0.4252700000000000    0.3429810000000000    0.6230130000000000 O
   0.3227730000000000    0.4487550000000000    0.4174400000000000 O
   0.7199690000000000    0.8022580000000000    0.3769870000000000 O
   0.2487960000000000    0.4665320000000000    0.1703130000000000 O
   0.2962190000000000    0.0784820000000000    0.8296870000000000 O
   0.5010820000000000    0.1693820000000000    0.7192590000000000 O
   0.4501230000000000    0.7818230000000000    0.2807410000000000 O
   0.5863810000000000    0.2555970000000000    0.5465750000000000 O
   0.1650070000000000    0.2169050000000000    0.1699360000000000 O
   0.0469690000000000    0.9950710000000000    0.8300640000000000 O
   0.7090220000000000    0.0398070000000000    0.4534250000000000 O
   0.2204180000000000    0.8457960000000000    0.9238810000000000 O
   0.8255830000000000    0.4078560000000000    0.8785040000000000 O
   0.9219150000000000    0.2965370000000000    0.0761190000000000 O
   0.5293520000000000    0.9470780000000000    0.1214960000000000 O
   0.9978290000000000    0.2809020000000000    0.3304930000000000 O
   0.9504100000000000    0.6673370000000000    0.6695070000000000 O
   0.7493250000000000    0.5810620000000000    0.7843210000000000 O
   0.7967410000000000    0.9650040000000000    0.2156790000000000 O
   0.6661880000000000    0.4967110000000000    0.9546370000000000 O
   0.0951080000000000    0.5502200000000000    0.3441260000000000 O
   0.2060940000000000    0.7509820000000000    0.6558740000000000 O
   0.5420739999999999    0.7115510000000000    0.0453630000000000 O
