Li2 P2 H4 O4
1.0
   2.7558729999999998    4.7469210000000004    0.0000000000000000
  -2.7558729999999998    4.7469210000000004    0.0000000000000000
   0.0000000000000000    2.1182889999999999    6.2397289999999996
Li P H O
2 2 4 4
direct
   0.7497050000000000    0.2502950000000000    0.0000000000000000 Li
   0.2502950000000000    0.7497050000000000    0.0000000000000000 Li
   0.8104580000000000    0.8104580000000000    0.7256060000000000 P
   0.1895420000000000    0.1895420000000000    0.2743940000000000 P
   0.0466900000000000    0.6430880000000000    0.5843530000000000 H
   0.6430880000000000    0.0466900000000000    0.5843530000000000 H
   0.9533100000000000    0.3569120000000000    0.4156470000000000 H
   0.3569120000000000    0.9533100000000000    0.4156470000000000 H
   0.9168370000000000    0.9168370000000000    0.8557000000000000 O
   0.0831630000000000    0.0831630000000000    0.1443000000000000 O
   0.6436210000000000    0.6436210000000000    0.8429110000000000 O
   0.3563790000000000    0.3563790000000000    0.1570890000000000 O
