Li16 Sn4 P8 O32
1.0
  10.4290249999999993    0.0000000000000000    0.0000000000000000
   0.0000000000000000    8.2783040000000003    0.0000000000000000
   0.0000000000000000    1.5782490000000000    8.8796510000000008
Li Sn P O
16 4 8 32
direct
   0.6592020000000000    0.1043500000000000    0.4013710000000000 Li
   0.1639360000000000    0.1465310000000000    0.3563050000000000 Li
   0.3456730000000000    0.1583820000000000    0.8280830000000000 Li
   0.4222920000000000    0.2306640000000000    0.5209859999999999 Li
   0.9222920000000000    0.2693360000000000    0.4790140000000000 Li
   0.8456730000000000    0.3416180000000000    0.1719170000000000 Li
   0.6639360000000000    0.3534690000000000    0.6436950000000000 Li
   0.1592020000000000    0.3956500000000000    0.5986290000000000 Li
   0.8407980000000000    0.6043500000000001    0.4013710000000000 Li
   0.3360640000000000    0.6465310000000000    0.3563050000000000 Li
   0.1543270000000000    0.6583820000000000    0.8280830000000000 Li
   0.0777080000000000    0.7306640000000000    0.5209859999999999 Li
   0.5777080000000000    0.7693360000000000    0.4790140000000000 Li
   0.6543270000000000    0.8416180000000000    0.1719170000000000 Li
   0.8360640000000000    0.8534690000000000    0.6436950000000000 Li
   0.3407980000000000    0.8956499999999999    0.5986290000000000 Li
   0.8532410000000000    0.0940640000000000    0.9134900000000000 Sn
   0.3532410000000000    0.4059360000000000    0.0865100000000000 Sn
   0.6467590000000000    0.5940640000000000    0.9134900000000000 Sn
   0.1467590000000000    0.9059360000000000    0.0865100000000000 Sn
   0.4071380000000000    0.0146150000000000    0.2487070000000000 P
   0.0928620000000000    0.5146150000000000    0.2487070000000000 P
   0.9071380000000000    0.4853850000000000    0.7512930000000000 P
   0.5928620000000000    0.9853850000000000    0.7512930000000000 P
   0.0965640000000000    0.0467890000000000    0.6793110000000000 P
   0.5965640000000000    0.4532110000000000    0.3206890000000000 P
   0.4034360000000000    0.5467890000000000    0.6793110000000000 P
   0.9034360000000000    0.9532110000000000    0.3206890000000000 P
   0.0487530000000000    0.9912870000000000    0.2751210000000000 O
   0.3482920000000000    0.0897120000000000    0.3793830000000000 O
   0.3947650000000000    0.1401970000000000    0.0948940000000000 O
   0.4528720000000000    0.0356540000000000    0.7128320000000000 O
   0.8445350000000000    0.1137820000000000    0.3594780000000000 O
   0.1700980000000000    0.1047380000000000    0.8078430000000000 O
   0.6733850000000000    0.1394670000000000    0.7761240000000000 O
   0.0950940000000000    0.1892870000000000    0.5412650000000000 O
   0.5950940000000000    0.3107130000000000    0.4587350000000000 O
   0.1733850000000000    0.3605330000000000    0.2238760000000000 O
   0.6700980000000000    0.3952620000000000    0.1921570000000000 O
   0.3445350000000000    0.3862180000000000    0.6405220000000000 O
   0.9528720000000001    0.4643460000000000    0.2871680000000000 O
   0.8947650000000000    0.3598030000000000    0.9051060000000000 O
   0.4512470000000000    0.4912870000000000    0.2751210000000000 O
   0.8482920000000000    0.4102880000000000    0.6206170000000000 O
   0.1517080000000000    0.5897120000000000    0.3793830000000000 O
   0.5487530000000000    0.5087130000000000    0.7248790000000001 O
   0.1052350000000000    0.6401970000000000    0.0948940000000000 O
   0.0471280000000000    0.5356540000000000    0.7128320000000000 O
   0.6554650000000000    0.6137820000000000    0.3594780000000000 O
   0.3299020000000000    0.6047380000000000    0.8078430000000000 O
   0.8266150000000000    0.6394670000000000    0.7761240000000000 O
   0.4049060000000000    0.6892870000000000    0.5412650000000000 O
   0.9049060000000000    0.8107130000000000    0.4587350000000000 O
   0.3266150000000000    0.8605330000000000    0.2238760000000000 O
   0.8299020000000000    0.8952620000000000    0.1921570000000000 O
   0.1554650000000000    0.8862180000000000    0.6405220000000000 O
   0.5471279999999999    0.9643460000000000    0.2871680000000000 O
   0.6052350000000000    0.8598030000000000    0.9051060000000000 O
   0.6517080000000000    0.9102880000000000    0.6206170000000000 O
   0.9512470000000000    0.0087130000000000    0.7248790000000001 O
