Li12 Si4 Bi4 O20
1.0
   5.2862250000000000    0.0000000000000000    0.0000000000000000
   0.0000000000000000    5.5199109999999996    0.0000000000000000
   0.0000000000000000    0.0000000000000000   16.5956229999999998
Li Si Bi O
12 4 4 20
direct
   0.9975190000000000    0.6625620000000000    0.5780640000000000 Li
   0.9975190000000000    0.1625620000000000    0.9219360000000000 Li
   0.5153980000000000    0.3253230000000000    0.9842919999999999 Li
   0.5153980000000000    0.8253230000000000    0.5157080000000001 Li
   0.4823270000000000    0.2977550000000000    0.8065390000000000 Li
   0.4823270000000000    0.7977550000000000    0.6934610000000000 Li
   0.4975190000000000    0.3374380000000000    0.4219360000000000 Li
   0.4975190000000000    0.8374380000000000    0.0780640000000000 Li
   0.0153980000000000    0.6746770000000000    0.0157080000000000 Li
   0.0153980000000000    0.1746770000000000    0.4842920000000000 Li
   0.9823270000000000    0.2022450000000000    0.3065390000000000 Li
   0.9823270000000000    0.7022450000000000    0.1934610000000000 Li
   0.0054130000000000    0.1676140000000000    0.0940100000000000 Si
   0.0054130000000000    0.6676140000000000    0.4059900000000000 Si
   0.5054130000000000    0.3323860000000000    0.5940100000000000 Si
   0.5054130000000000    0.8323860000000000    0.9059900000000000 Si
   0.0345950000000000    0.1814030000000000    0.6827630000000000 Bi
   0.0345950000000000    0.6814030000000000    0.8172370000000000 Bi
   0.5345950000000000    0.3185970000000000    0.1827630000000000 Bi
   0.5345950000000000    0.8185970000000000    0.3172370000000000 Bi
   0.1033980000000000    0.2951960000000000    0.8112400000000000 O
   0.1033980000000000    0.7951960000000000    0.6887600000000000 O
   0.1306240000000000    0.4007060000000000    0.3920810000000000 O
   0.1306240000000000    0.9007060000000000    0.1079190000000000 O
   0.1514940000000000    0.3357650000000000    0.0274780000000000 O
   0.1514940000000000    0.8357650000000000    0.4725220000000000 O
   0.9751820000000000    0.3160630000000000    0.1843520000000000 O
   0.9751820000000000    0.8160630000000000    0.3156480000000000 O
   0.1990520000000000    0.3548780000000000    0.5697030000000000 O
   0.1990520000000000    0.8548780000000000    0.9302970000000000 O
   0.6033980000000000    0.2048040000000000    0.3112400000000000 O
   0.6033980000000000    0.7048040000000000    0.1887600000000000 O
   0.6306240000000000    0.0992940000000000    0.8920810000000000 O
   0.6306240000000000    0.5992940000000000    0.6079190000000000 O
   0.6514940000000000    0.1642350000000000    0.5274780000000000 O
   0.6514940000000000    0.6642350000000000    0.9725220000000000 O
   0.4751820000000000    0.1839370000000000    0.6843520000000000 O
   0.4751820000000000    0.6839370000000000    0.8156480000000000 O
   0.6990520000000000    0.1451220000000000    0.0697030000000000 O
   0.6990520000000000    0.6451220000000000    0.4302970000000000 O
