Cs2 Li4 H6 O6
1.0
   6.4975470000000000    0.0000000000000000   -2.0891989999999998
   0.0000000000000000    5.2735979999999998    0.0000000000000000
  -0.0684380000000000    0.0000000000000000    6.7836840000000000
Cs Li H O
2 4 6 6
direct
   0.1464230000000000    0.2500000000000000    0.2672370000000000 Cs
   0.8535770000000000    0.7500000000000000    0.7327630000000001 Cs
   0.6463750000000000    0.5024350000000000    0.1724010000000000 Li
   0.3536250000000000    0.0024350000000000    0.8275990000000000 Li
   0.3536250000000000    0.4975650000000000    0.8275990000000000 Li
   0.6463750000000000    0.9975650000000000    0.1724010000000000 Li
   0.6957080000000000    0.2500000000000000    0.8746330000000000 H
   0.3042920000000000    0.7500000000000000    0.1253670000000000 H
   0.0298720000000000    0.2500000000000000    0.6705740000000000 H
   0.9701280000000000    0.7500000000000000    0.3294260000000000 H
   0.6294370000000000    0.2500000000000000    0.5034300000000000 H
   0.3705630000000000    0.7500000000000000    0.4965700000000000 H
   0.5849420000000000    0.2500000000000000    0.9350850000000001 O
   0.4150580000000000    0.7500000000000000    0.0649150000000000 O
   0.1313860000000000    0.2500000000000000    0.8086390000000000 O
   0.8686140000000000    0.7500000000000000    0.1913610000000000 O
   0.6841480000000000    0.2500000000000000    0.3883900000000000 O
   0.3158520000000000    0.7500000000000000    0.6116100000000000 O
