pymatgen with grid density = 1341 / number of atoms
0
Gamma
1 2 2
