Li8 B32 Se4 O60
1.0
  16.4866980000000005    0.0000000000000000    0.0000000000000000
   0.0000000000000000    8.5528139999999997    0.0000000000000000
   0.0000000000000000    0.6844209999999999    8.7345640000000007
Li B Se O
8 32 4 60
direct
   0.6418080000000000    0.5031430000000000    0.1384910000000000 Li
   0.1418080000000000    0.9968570000000000    0.8615090000000000 Li
   0.3581920000000000    0.4968570000000000    0.8615090000000000 Li
   0.8581920000000000    0.0031430000000000    0.1384910000000000 Li
   0.5004560000000000    0.8693930000000000    0.6197580000000000 Li
   0.0004560000000000    0.6306070000000000    0.3802420000000000 Li
   0.4995440000000000    0.1306070000000000    0.3802420000000000 Li
   0.9995440000000000    0.3693930000000000    0.6197580000000000 Li
   0.6835090000000000    0.4392230000000000    0.4725530000000000 B
   0.1835090000000000    0.0607770000000000    0.5274470000000000 B
   0.3164910000000000    0.5607770000000000    0.5274470000000000 B
   0.8164910000000000    0.9392230000000000    0.4725530000000000 B
   0.5704950000000000    0.6311760000000000    0.4097270000000000 B
   0.0704950000000000    0.8688240000000000    0.5902730000000000 B
   0.4295050000000000    0.3688240000000000    0.5902730000000000 B
   0.9295050000000000    0.1311760000000000    0.4097270000000000 B
   0.6091839999999999    0.5687590000000000    0.6739530000000000 B
   0.1091840000000000    0.9312410000000000    0.3260470000000000 B
   0.3908160000000000    0.4312410000000000    0.3260470000000000 B
   0.8908160000000001    0.0687590000000000    0.6739530000000000 B
   0.4986030000000000    0.7220529999999999    0.1605620000000000 B
   0.9986030000000000    0.7779470000000001    0.8394380000000000 B
   0.5013970000000000    0.2779470000000000    0.8394380000000000 B
   0.0013970000000000    0.2220530000000000    0.1605620000000000 B
   0.5413650000000000    0.6671960000000000    0.9069400000000000 B
   0.0413650000000000    0.8328040000000000    0.0930600000000000 B
   0.4586350000000000    0.3328040000000000    0.0930600000000000 B
   0.9586350000000000    0.1671960000000000    0.9069400000000000 B
   0.4160550000000000    0.8232640000000000    0.9384630000000000 B
   0.9160550000000000    0.6767360000000000    0.0615370000000000 B
   0.5839450000000000    0.1767360000000000    0.0615370000000000 B
   0.0839450000000000    0.3232640000000000    0.9384630000000000 B
   0.3204380000000000    0.0400200000000000    0.8935900000000000 B
   0.8204380000000000    0.4599800000000000    0.1064100000000000 B
   0.6795620000000000    0.9599800000000001    0.1064100000000000 B
   0.1795620000000000    0.5400199999999999    0.8935900000000000 B
   0.2680670000000000    0.7780560000000000    0.9043590000000000 B
   0.7680670000000001    0.7219440000000000    0.0956410000000000 B
   0.7319329999999999    0.2219440000000000    0.0956410000000000 B
   0.2319330000000000    0.2780560000000000    0.9043590000000000 B
   0.6738459999999999    0.1015990000000000    0.5568380000000001 Se
   0.1738460000000000    0.3984010000000000    0.4431620000000000 Se
   0.3261540000000000    0.8984010000000000    0.4431620000000000 Se
   0.8261540000000001    0.6015990000000000    0.5568380000000001 Se
   0.6724390000000000    0.2743920000000000    0.4318310000000000 O
   0.1724390000000000    0.2256080000000000    0.5681690000000000 O
   0.3275610000000000    0.7256080000000000    0.5681690000000000 O
   0.8275610000000000    0.7743920000000000    0.4318310000000000 O
   0.7301100000000000    0.9815800000000000    0.4384550000000000 O
   0.2301100000000000    0.5184200000000000    0.5615450000000000 O
   0.2698900000000000    0.0184200000000000    0.5615450000000000 O
   0.7698900000000000    0.4815800000000000    0.4384550000000000 O
   0.5816190000000000    0.0303390000000000    0.5228890000000000 O
   0.0816190000000000    0.4696610000000000    0.4771110000000000 O
   0.4183810000000000    0.9696610000000000    0.4771110000000000 O
   0.9183810000000000    0.5303390000000000    0.5228890000000000 O
   0.6646910000000000    0.4632670000000000    0.6321280000000000 O
   0.1646910000000000    0.0367330000000000    0.3678720000000000 O
   0.3353090000000000    0.5367330000000000    0.3678720000000000 O
   0.8353090000000000    0.9632670000000000    0.6321280000000000 O
   0.6289890000000000    0.5329610000000000    0.3630160000000000 O
   0.1289890000000000    0.9670390000000000    0.6369840000000000 O
   0.3710110000000000    0.4670390000000000    0.6369840000000000 O
   0.8710110000000000    0.0329610000000000    0.3630160000000000 O
   0.5142099999999999    0.7072790000000000    0.3160200000000000 O
   0.0142100000000000    0.7927210000000000    0.6839800000000000 O
   0.4857900000000000    0.2927210000000000    0.6839800000000000 O
   0.9857900000000001    0.2072790000000000    0.3160200000000000 O
   0.5467600000000000    0.6339780000000000    0.0652400000000000 O
   0.0467600000000000    0.8660220000000000    0.9347600000000000 O
   0.4532400000000000    0.3660220000000000    0.9347600000000000 O
   0.9532400000000000    0.1339780000000000    0.0652400000000000 O
   0.4372220000000000    0.8106920000000000    0.1020360000000000 O
   0.9372220000000000    0.6893080000000000    0.8979640000000000 O
   0.5627780000000000    0.1893080000000000    0.8979640000000000 O
   0.0627780000000000    0.3106920000000000    0.1020360000000000 O
   0.5623330000000000    0.6574989999999999    0.5654450000000000 O
   0.0623330000000000    0.8425010000000001    0.4345550000000000 O
   0.4376670000000000    0.3425010000000000    0.4345550000000000 O
   0.9376670000000000    0.1574990000000000    0.5654450000000000 O
   0.5990230000000000    0.5902930000000000    0.8265760000000000 O
   0.0990230000000000    0.9097070000000000    0.1734240000000000 O
   0.4009770000000000    0.4097070000000000    0.1734240000000000 O
   0.9009770000000000    0.0902930000000000    0.8265760000000000 O
   0.4843090000000000    0.7665850000000000    0.8425490000000000 O
   0.9843090000000000    0.7334150000000000    0.1574510000000000 O
   0.5156910000000000    0.2334150000000000    0.1574510000000000 O
   0.0156910000000000    0.2665850000000000    0.8425490000000000 O
   0.3971630000000000    0.9862870000000000    0.8877020000000000 O
   0.8971630000000000    0.5137130000000000    0.1122980000000000 O
   0.6028370000000000    0.0137130000000000    0.1122980000000000 O
   0.1028370000000000    0.4862870000000000    0.8877020000000000 O
   0.2544960000000000    0.9379750000000000    0.9118150000000000 O
   0.7544960000000001    0.5620250000000000    0.0881850000000000 O
   0.7455039999999999    0.0620250000000000    0.0881850000000000 O
   0.2455040000000000    0.4379750000000000    0.9118150000000000 O
   0.1966470000000000    0.6976329999999999    0.8876930000000000 O
   0.6966470000000000    0.8023670000000001    0.1123070000000000 O
   0.8033530000000000    0.3023670000000000    0.1123070000000000 O
   0.3033530000000000    0.1976330000000000    0.8876930000000000 O
   0.3441320000000000    0.7176800000000000    0.9148450000000000 O
   0.8441320000000000    0.7823200000000000    0.0851550000000000 O
   0.6558680000000000    0.2823200000000000    0.0851550000000000 O
   0.1558680000000000    0.2176800000000000    0.9148450000000000 O
