Li4 Ga4 P4 O17 F3
1.0
   6.8338979999999996    0.0000000000000000    0.0000000000000000
  -0.0894620000000000    7.4539380000000000    0.0000000000000000
  -0.1097160000000000   -3.4026500000000000    6.8454090000000001
Li Ga P O F
4 4 4 17 3
direct
   0.3459240000000000    0.9376580000000000    0.7219520000000000 Li
   0.8443070000000000    0.4332980000000000    0.2189920000000000 Li
   0.1564910000000000    0.5652630000000000    0.7819670000000000 Li
   0.6550340000000000    0.0678500000000000    0.2811820000000000 Li
   0.0012420000000000    0.9999140000000000    0.0011560000000000 Ga
   0.4977180000000000    0.5050360000000000    0.4969950000000000 Ga
   0.2546860000000000    0.7478350000000000    0.2534670000000000 Ga
   0.7480869999999999    0.2503900000000000    0.7493780000000000 Ga
   0.3961420000000000    0.2823810000000000    0.0426150000000000 P
   0.8958880000000000    0.7830880000000000    0.5448850000000000 P
   0.1023120000000000    0.2174370000000000    0.4557460000000000 P
   0.6054659999999999    0.7159700000000000    0.9553840000000000 P
   0.2656730000000000    0.1021480000000000    0.0237750000000000 O
   0.7670340000000000    0.6020720000000001    0.5251550000000000 O
   0.2336380000000000    0.3972300000000000    0.4764920000000000 O
   0.7355390000000001    0.8963090000000000    0.9743590000000000 O
   0.5493280000000000    0.3348240000000000    0.2140590000000000 O
   0.0482710000000000    0.8393560000000000    0.7176210000000000 O
   0.9499850000000000    0.1627780000000000    0.2827200000000000 O
   0.4515320000000000    0.6597880000000000    0.7854430000000000 O
   0.2741300000000000    0.4623680000000000    0.0658660000000000 O
   0.7726920000000000    0.9638120000000000    0.5694820000000000 O
   0.2240460000000000    0.0365250000000000    0.4286470000000000 O
   0.7270550000000000    0.5351820000000000    0.9313930000000000 O
   0.5051510000000000    0.1927230000000000    0.8452680000000000 O
   0.0041110000000000    0.6942670000000000    0.3470230000000000 O
   0.9934040000000000    0.3058840000000000    0.6531260000000000 O
   0.4987010000000000    0.8076070000000000    0.1548870000000000 O
   0.3953750000000000    0.7278760000000000    0.4639050000000000 O
   0.8998830000000000    0.2285820000000000    0.9635490000000000 F
   0.1016390000000000    0.7712790000000000    0.0378100000000000 F
   0.5995150000000000    0.2732710000000000    0.5356970000000000 F
