Li6 Bi2 P4 O16
1.0
   5.3484340000000001    0.0000000000000000    0.0000000000000000
   0.0000000000000000    6.7574990000000001    0.0000000000000000
   0.0000000000000000    1.0121620000000000    9.4707819999999998
Li Bi P O
6 2 4 16
direct
   0.7500000000000000    0.6964020000000000    0.0474880000000000 Li
   0.2500000000000000    0.4699320000000000    0.2293820000000000 Li
   0.7500000000000000    0.2609110000000000    0.4632180000000000 Li
   0.2500000000000000    0.7390890000000000    0.5367820000000000 Li
   0.7500000000000000    0.5300680000000000    0.7706180000000000 Li
   0.2500000000000000    0.3035980000000000    0.9525120000000000 Li
   0.2500000000000000    0.0123280000000000    0.2339030000000000 Bi
   0.7500000000000000    0.9876720000000000    0.7660970000000000 Bi
   0.7500000000000000    0.2144620000000000    0.0516710000000000 P
   0.7500000000000000    0.7311710000000000    0.4432090000000000 P
   0.2500000000000000    0.2688290000000000    0.5567910000000000 P
   0.2500000000000000    0.7855380000000000    0.9483290000000000 P
   0.7500000000000000    0.9843710000000000    0.0831760000000000 O
   0.2500000000000000    0.7232730000000001    0.1130300000000000 O
   0.5090340000000000    0.3031290000000000    0.1122420000000000 O
   0.9909660000000000    0.3031290000000000    0.1122420000000000 O
   0.5082460000000000    0.8498440000000000    0.3939090000000000 O
   0.9917540000000000    0.8498440000000000    0.3939090000000000 O
   0.7500000000000000    0.5265480000000000    0.3904190000000000 O
   0.2500000000000000    0.2740460000000000    0.3916190000000000 O
   0.7500000000000000    0.7259540000000000    0.6083809999999999 O
   0.2500000000000000    0.4734520000000000    0.6095810000000000 O
   0.0082460000000000    0.1501560000000000    0.6060910000000000 O
   0.4917540000000000    0.1501560000000000    0.6060910000000000 O
   0.0090340000000000    0.6968710000000000    0.8877580000000000 O
   0.4909660000000000    0.6968710000000000    0.8877580000000000 O
   0.7500000000000000    0.2767270000000000    0.8869700000000000 O
   0.2500000000000000    0.0156290000000000    0.9168240000000000 O
