Li2 Sn2 P2 C2 O14
1.0
   6.5810860000000000    0.0000000000000000    0.0000000000000000
   0.0000000000000000    5.0961910000000001    0.0000000000000000
   0.0000000000000000    0.7128679999999999    8.4835449999999994
Li Sn P C O
2 2 2 2 14
direct
   0.2500000000000000    0.7573590000000000    0.0926260000000000 Li
   0.7500000000000000    0.2426410000000000    0.9073740000000000 Li
   0.7500000000000000    0.8017450000000000    0.3232340000000000 Sn
   0.2500000000000000    0.1982550000000000    0.6767660000000000 Sn
   0.2500000000000000    0.7196950000000000    0.4194980000000000 P
   0.7500000000000000    0.2803050000000000    0.5805020000000000 P
   0.7500000000000000    0.6986170000000000    0.0349760000000000 C
   0.2500000000000000    0.3013830000000000    0.9650240000000000 C
   0.7500000000000000    0.9481870000000000    0.0769190000000000 O
   0.2500000000000000    0.3633430000000000    0.1033410000000000 O
   0.7500000000000000    0.5213170000000000    0.1585420000000000 O
   0.0671910000000000    0.7960100000000000    0.3098670000000000 O
   0.4328090000000000    0.7960100000000000    0.3098670000000000 O
   0.7500000000000000    0.1450760000000000    0.4251790000000000 O
   0.2500000000000000    0.4191810000000000    0.4661600000000000 O
   0.7500000000000000    0.5808190000000000    0.5338400000000000 O
   0.2500000000000000    0.8549240000000000    0.5748210000000000 O
   0.5671910000000000    0.2039900000000000    0.6901330000000000 O
   0.9328090000000000    0.2039900000000000    0.6901330000000000 O
   0.2500000000000000    0.4786830000000000    0.8414580000000000 O
   0.7500000000000000    0.6366570000000000    0.8966590000000000 O
   0.2500000000000000    0.0518130000000000    0.9230810000000000 O
