Li24 Bi8 P16 O64
1.0
   5.3884340000000002    0.0000000000000000    0.0000000000000000
   0.0000000000000000   12.9804530000000007    0.0000000000000000
   0.0000000000000000    6.3540179999999999   18.3250589999999995
Li Bi P O
24 8 16 64
direct
   0.8414580000000000    0.6850280000000000    0.9467220000000000 Li
   0.3299380000000000    0.8020880000000000    0.8702430000000000 Li
   0.7108160000000000    0.9395580000000000    0.8025620000000000 Li
   0.6585420000000000    0.1850280000000000    0.9467220000000000 Li
   0.1700620000000000    0.3020880000000000    0.8702430000000000 Li
   0.7891840000000000    0.4395580000000000    0.8025620000000000 Li
   0.1835890000000000    0.7444800000000000    0.6918900000000000 Li
   0.8144479999999999    0.6824630000000000    0.6214590000000000 Li
   0.3164110000000000    0.2444800000000000    0.6918900000000000 Li
   0.3347320000000000    0.6249160000000000    0.5619830000000000 Li
   0.6855520000000001    0.1824630000000000    0.6214590000000000 Li
   0.8347320000000000    0.8750840000000000    0.4380170000000000 Li
   0.1652680000000000    0.1249160000000000    0.5619830000000000 Li
   0.3144480000000000    0.8175370000000000    0.3785410000000000 Li
   0.6652680000000000    0.3750840000000000    0.4380170000000000 Li
   0.6835890000000000    0.7555200000000000    0.3081100000000000 Li
   0.1855520000000000    0.3175370000000000    0.3785410000000000 Li
   0.8164110000000000    0.2555200000000000    0.3081100000000000 Li
   0.2108160000000000    0.5604420000000000    0.1974380000000000 Li
   0.8299380000000000    0.6979120000000000    0.1297570000000000 Li
   0.3414580000000000    0.8149720000000000    0.0532780000000000 Li
   0.2891840000000000    0.0604420000000000    0.1974380000000000 Li
   0.6700620000000000    0.1979120000000000    0.1297570000000000 Li
   0.1585420000000000    0.3149720000000000    0.0532780000000000 Li
   0.3227620000000000    0.5395720000000001    0.8829850000000000 Bi
   0.1772380000000000    0.0395720000000000    0.8829850000000000 Bi
   0.6807410000000000    0.9200600000000000    0.6178730000000000 Bi
   0.8192590000000000    0.4200600000000000    0.6178730000000000 Bi
   0.1807410000000000    0.5799400000000000    0.3821270000000000 Bi
   0.3192590000000000    0.0799400000000000    0.3821270000000000 Bi
   0.8227620000000000    0.9604279999999999    0.1170150000000000 Bi
   0.6772380000000000    0.4604280000000000    0.1170150000000000 Bi
   0.7235470000000001    0.9094420000000000    0.9647120000000000 P
   0.7764529999999999    0.4094420000000000    0.9647120000000000 P
   0.7981500000000000    0.7018200000000000    0.7889860000000000 P
   0.7018500000000000    0.2018200000000000    0.7889860000000000 P
   0.2949440000000000    0.4853840000000000    0.7122020000000000 P
   0.2281000000000000    0.8763640000000000    0.5326050000000000 P
   0.2050560000000000    0.9853840000000000    0.7122020000000000 P
   0.2719000000000000    0.3763640000000000    0.5326050000000000 P
   0.7281000000000000    0.6236360000000000    0.4673950000000000 P
   0.7949440000000000    0.0146160000000000    0.2877980000000000 P
   0.7719000000000000    0.1236360000000000    0.4673950000000000 P
   0.7050560000000000    0.5146160000000000    0.2877980000000000 P
   0.2981500000000000    0.7981800000000000    0.2110140000000000 P
   0.2018500000000000    0.2981800000000000    0.2110140000000000 P
   0.2235470000000000    0.5905580000000000    0.0352880000000000 P
   0.2764530000000000    0.0905580000000000    0.0352880000000000 P
   0.4714350000000000    0.8942190000000000    0.9298470000000000 O
   0.9351620000000000    0.8782310000000000    0.9203209999999999 O
   0.2192870000000000    0.6684760000000000    0.9548190000000000 O
   0.7347950000000000    0.5281090000000001    0.9638480000000000 O
   0.2885900000000000    0.9624210000000000    0.7935000000000000 O
   0.6675040000000000    0.7674370000000000    0.8318120000000000 O
   0.0285650000000000    0.3942190000000000    0.9298470000000000 O
   0.5648380000000000    0.3782310000000000    0.9203209999999999 O
   0.2807130000000000    0.1684760000000000    0.9548190000000000 O
   0.0851240000000000    0.6970300000000000    0.8023210000000000 O
   0.7652050000000000    0.0281090000000000    0.9638480000000000 O
   0.6877799999999999    0.5845290000000000    0.8119980000000000 O
   0.9167200000000000    0.9801860000000000    0.7073620000000000 O
   0.3202750000000000    0.8911840000000000    0.6889880000000000 O
   0.2114100000000000    0.4624210000000000    0.7935000000000000 O
   0.8324960000000000    0.2674370000000000    0.8318120000000000 O
   0.7681380000000000    0.7505400000000000    0.7035950000000000 O
   0.4148760000000000    0.1970300000000000    0.8023210000000000 O
   0.8122200000000001    0.0845290000000000    0.8119980000000000 O
   0.5832800000000000    0.4801860000000000    0.7073620000000000 O
   0.1916980000000000    0.5966210000000000    0.6626710000000000 O
   0.1797250000000000    0.3911840000000000    0.6889880000000000 O
   0.9900580000000000    0.8215340000000000    0.5743700000000000 O
   0.4519380000000000    0.8033150000000000    0.5703150000000000 O
   0.7318620000000000    0.2505400000000000    0.7035950000000000 O
   0.2661560000000000    0.9929680000000000    0.5351820000000000 O
   0.7027420000000000    0.6187970000000000    0.5484340000000000 O
   0.3083020000000000    0.0966210000000000    0.6626710000000000 O
   0.2027420000000000    0.8812030000000000    0.4515660000000000 O
   0.5099420000000000    0.3215340000000000    0.5743700000000000 O
   0.0480620000000000    0.3033150000000000    0.5703150000000000 O
   0.2338440000000000    0.4929680000000000    0.5351820000000000 O
   0.7661559999999999    0.5070320000000000    0.4648180000000000 O
   0.9519380000000000    0.6966850000000000    0.4296850000000000 O
   0.4900580000000000    0.6784660000000000    0.4256300000000000 O
   0.7972580000000000    0.1187970000000000    0.5484340000000000 O
   0.6916980000000000    0.9033790000000000    0.3373290000000000 O
   0.2972580000000000    0.3812030000000000    0.4515660000000000 O
   0.7338440000000001    0.0070320000000000    0.4648180000000000 O
   0.2681380000000000    0.7494600000000000    0.2964050000000000 O
   0.5480620000000000    0.1966850000000000    0.4296850000000000 O
   0.0099420000000000    0.1784660000000000    0.4256300000000000 O
   0.8202750000000000    0.6088160000000000    0.3110120000000000 O
   0.8083020000000000    0.4033790000000000    0.3373290000000000 O
   0.4167200000000000    0.5198140000000000    0.2926380000000000 O
   0.1877800000000000    0.9154710000000000    0.1880020000000000 O
   0.5851240000000000    0.8029700000000000    0.1976790000000000 O
   0.2318620000000000    0.2494600000000000    0.2964050000000000 O
   0.1675040000000000    0.7325630000000000    0.1681880000000000 O
   0.7885900000000000    0.5375790000000000    0.2065000000000000 O
   0.6797250000000000    0.1088160000000000    0.3110120000000000 O
   0.0832800000000000    0.0198140000000000    0.2926380000000000 O
   0.3122200000000000    0.4154710000000000    0.1880020000000000 O
   0.2347950000000000    0.9718909999999999    0.0361520000000000 O
   0.9148760000000000    0.3029700000000000    0.1976790000000000 O
   0.7192870000000000    0.8315240000000000    0.0451810000000000 O
   0.4351620000000000    0.6217690000000000    0.0796790000000000 O
   0.9714350000000000    0.6057810000000000    0.0701530000000000 O
   0.3324960000000000    0.2325630000000000    0.1681880000000000 O
   0.7114100000000000    0.0375790000000000    0.2065000000000000 O
   0.2652050000000000    0.4718910000000000    0.0361520000000000 O
   0.7807130000000000    0.3315240000000000    0.0451810000000000 O
   0.0648380000000000    0.1217690000000000    0.0796790000000000 O
   0.5285650000000000    0.1057810000000000    0.0701530000000000 O
