ALGO = Fast
EDIFF = 0.003
ENCUT = 520
IBRION = 2
ISIF = 3
ISMEAR = -5
ISPIN = 2
LASPH = True
LMAXMIX = 6
LORBIT = 11
LREAL = Auto
LWAVE = False
MAGMOM = 2*-0.003 1*0.002 1*0.005 1*0.0 1*0.002 1*0.005 1*0.0 2*0.001 1*0.003 2*0.189 1*0.003 1*0.002 1*0.054 1*0.047 1*-0.026 1*0.096 1*-0.026 1*0.047 1*0.096 1*0.002 1*0.054 1*0.024 1*-0.017 1*0.037 2*0.075 1*0.037 1*-0.017 1*-0.02 1*0.024 1*0.053 1*-0.001 1*-0.357 1*0.038 1*0.042 1*0.104 1*0.01 1*0.416 2*-0.02 1*0.012 1*0.003 2*0.001 1*0.003 1*0.012 1*-0.02 1*0.111 1*0.416 1*0.01 1*0.104 1*0.042 1*0.038 1*-0.357 1*-0.001 1*0.053 1*0.111
NELM = 100
NSW = 99
PREC = Accurate
SIGMA = 0.05
