Na8 Li24 Si8 O32
1.0
  -5.4372850000000001    5.4372850000000001    6.3682129999999999
   5.4372850000000001   -5.4372850000000001    6.3682129999999999
   5.4372850000000001    5.4372850000000001   -6.3682129999999999
Na Li Si O
8 24 8 32
direct
   0.4558980000000000    0.9990820000000000    0.0141090000000000 Na
   0.9849740000000000    0.4417890000000000    0.9858910000000000 Na
   0.0009180000000000    0.0150260000000000    0.4568150000000000 Na
   0.2941020000000000    0.2509180000000000    0.4858910000000000 Na
   0.1917890000000000    0.7058980000000000    0.9568150000000000 Na
   0.7490820000000000    0.2349740000000000    0.0431850000000000 Na
   0.5582110000000000    0.5441020000000000    0.5431850000000000 Na
   0.7650260000000000    0.8082110000000000    0.5141090000000000 Na
   0.8418830000000000    0.4715840000000000    0.6899320000000000 Li
   0.2985880000000000    0.6610560000000000    0.3213700000000000 Li
   0.4514120000000000    0.5889440000000000    0.1786300000000000 Li
   0.6981020000000000    0.5627420000000000    0.8670180000000000 Li
   0.3389440000000000    0.6603140000000000    0.6375320000000000 Li
   0.9683480000000000    0.0980490000000000    0.1899320000000000 Li
   0.8480490000000001    0.1581170000000000    0.6297010000000000 Li
   0.5284160000000000    0.2183480000000000    0.3702990000000000 Li
   0.2215840000000000    0.0316520000000000    0.1297010000000000 Li
   0.3127420000000000    0.9457240000000000    0.3646400000000000 Li
   0.3396860000000000    0.9772180000000000    0.6786300000000000 Li
   0.7816520000000000    0.1519510000000000    0.3100680000000000 Li
   0.0227820000000000    0.7014120000000000    0.3624680000000000 Li
   0.9019509999999999    0.0918830000000000    0.8702990000000000 Li
   0.1689160000000000    0.3018980000000000    0.8646400000000000 Li
   0.6957240000000000    0.8310850000000000    0.1329820000000000 Li
   0.7272180000000000    0.5485880000000000    0.1375320000000000 Li
   0.9081170000000000    0.7784160000000000    0.8100680000000000 Li
   0.4110560000000000    0.5896860000000000    0.8624680000000000 Li
   0.4103140000000000    0.2727820000000000    0.8213700000000000 Li
   0.0542760000000000    0.4189150000000000    0.3670180000000000 Li
   0.4372580000000000    0.3042760000000000    0.1353600000000000 Li
   0.5810850000000000    0.9481020000000000    0.6353600000000000 Li
   0.0518980000000000    0.6872580000000000    0.6329820000000000 Li
   0.0013370000000000    0.7810110000000000    0.1426380000000000 Si
   0.6383730000000000    0.8586990000000000    0.8573620000000000 Si
   0.2189890000000000    0.3616270000000000    0.2203260000000000 Si
   0.6086990000000000    0.2513370000000000    0.7203260000000000 Si
   0.1116270000000000    0.3913010000000000    0.6426380000000000 Si
   0.7486630000000000    0.4689890000000000    0.3573620000000000 Si
   0.5310110000000000    0.8883730000000000    0.2796740000000000 Si
   0.1413010000000000    0.9986630000000000    0.7796740000000000 Si
   0.6403070000000000    0.3849650000000000    0.9090630000000000 O
   0.1860470000000000    0.5768970000000000    0.6863790000000000 O
   0.9994880000000000    0.3769570000000000    0.7245239999999999 O
   0.2496680000000000    0.4360470000000000    0.1091500000000000 O
   0.6230430000000000    0.3475670000000000    0.6225309999999999 O
   0.8905180000000000    0.4996680000000000    0.3136210000000000 O
   0.9249010000000000    0.6647270000000000    0.9320540000000000 O
   0.7250360000000000    0.0005120000000000    0.3774690000000000 O
   0.6150350000000000    0.5240970000000000    0.2553420000000000 O
   0.7505120000000000    0.8730430000000000    0.7754760000000001 O
   0.4147270000000000    0.9826730000000000    0.2398270000000000 O
   0.0071540000000000    0.0750990000000000    0.7398270000000000 O
   0.8250990000000000    0.5852730000000000    0.5679460000000000 O
   0.0173270000000000    0.2571540000000000    0.4320540000000000 O
   0.3268970000000000    0.1405180000000000    0.8908500000000000 O
   0.6524330000000000    0.2749640000000000    0.2754760000000000 O
   0.1096930000000000    0.8650350000000000    0.5909370000000000 O
   0.5003320000000000    0.8139530000000000    0.3908500000000000 O
   0.0975670000000000    0.9750360000000000    0.2245240000000000 O
   0.1349650000000000    0.7259030000000000    0.2446580000000000 O
   0.3352730000000000    0.2673270000000000    0.2601730000000000 O
   0.0249640000000000    0.2494880000000000    0.1225310000000000 O
   0.1269570000000000    0.9024330000000000    0.8774690000000001 O
   0.2740970000000000    0.5187550000000000    0.4090630000000000 O
   0.4759030000000000    0.7312450000000000    0.0909370000000000 O
   0.2687550000000000    0.3596930000000000    0.7446580000000000 O
   0.8594820000000000    0.7503320000000000    0.1863790000000000 O
   0.4812450000000000    0.8903070000000000    0.7553420000000000 O
   0.7428460000000000    0.1749010000000000    0.7601730000000000 O
   0.5639530000000000    0.6731030000000000    0.8136210000000000 O
   0.7326730000000000    0.9928460000000000    0.0679460000000000 O
   0.4231030000000000    0.1094820000000000    0.6091500000000000 O
