Li1 Ga1 As2 O7
1.0
   4.1719650000000001    3.3749319999999998    0.0000000000000000
  -4.1719650000000001    3.3749319999999998    0.0000000000000000
   0.0000000000000000    1.1597530000000000    4.6324730000000001
Li Ga As O
1 1 2 7
direct
   0.2493100000000000    0.7506900000000000    0.5000000000000000 Li
   0.6246940000000000    0.3753060000000000    0.5000000000000000 Ga
   0.1796210000000000    0.2529480000000000    0.0938950000000000 As
   0.7470520000000000    0.8203790000000000    0.9061050000000000 As
   0.3586570000000000    0.1421150000000000    0.3324420000000000 O
   0.8578850000000000    0.6413430000000000    0.6675580000000000 O
   0.6113700000000000    0.0540290000000000    0.7614030000000001 O
   0.9459710000000000    0.3886300000000000    0.2385970000000000 O
   0.5484440000000000    0.6622080000000000    0.2281030000000000 O
   0.3377920000000000    0.4515560000000000    0.7718970000000001 O
   0.0498840000000000    0.9501160000000000    0.0000000000000000 O
