pymatgen with grid density = 1328 / number of atoms
0
Gamma
5 5 1
