Ba4 Li1 Ge4 O12
1.0
   4.8086539999999998    0.0279930000000000   -0.0502700000000000
   0.0335090000000000    5.8554449999999996   -0.0830120000000000
  -0.1437140000000000   -0.1843320000000000   13.0053750000000008
Ba Li Ge O
4 1 4 12
direct
   0.2382870000000000    0.7599240000000000    0.8845229999999999 Ba
   0.7795660000000000    0.6856040000000000    0.1570250000000000 Ba
   0.7257730000000000    0.3014250000000000    0.6383520000000000 Ba
   0.2330860000000000    0.1930580000000000    0.3620020000000000 Ba
   0.6938960000000000    0.7759530000000000    0.7316730000000000 Li
   0.7918290000000000    0.2733680000000000    0.9057710000000000 Ge
   0.3071310000000000    0.2102530000000000    0.0743530000000000 Ge
   0.2008220000000000    0.8332400000000000    0.5808420000000000 Ge
   0.6914700000000000    0.6960250000000000    0.4361490000000000 Ge
   0.7522030000000000    0.5380170000000000    0.8377740000000000 O
   0.2590870000000000    0.9128550000000000    0.0901100000000000 O
   0.2385340000000000    0.1307270000000000    0.5791650000000000 O
   0.7488430000000000    0.4027330000000000    0.4179160000000000 O
   0.7721740000000000    0.0394970000000000    0.8121969999999999 O
   0.2328100000000000    0.3987080000000000    0.1789960000000000 O
   0.3254640000000000    0.6794220000000000    0.6849020000000000 O
   0.7624630000000000    0.8873840000000000    0.3397100000000000 O
   0.3144630000000000    0.7193130000000000    0.4569140000000000 O
   0.8231880000000000    0.7818280000000000    0.5696740000000000 O
   0.6747530000000000    0.2618690000000000    0.0459490000000000 O
   0.1702690000000000    0.2896320000000000    0.9455960000000000 O
