pymatgen with grid density = 1299 / number of atoms
0
Gamma
3 3 3
