Li2 Bi2 P4 O14
1.0
  -6.5781260000000001    0.0000000000000000    0.0000000000000000
  -0.2341280000000000   -6.6727920000000003    0.0000000000000000
   2.8786529999999999    0.6381910000000000    6.1235650000000001
Li Bi P O
2 2 4 14
direct
   0.7700420000000000    0.6511880000000000    0.9215120000000000 Li
   0.2299580000000000    0.3488120000000000    0.0784880000000000 Li
   0.8076930000000000    0.1435570000000000    0.2476550000000000 Bi
   0.1923070000000000    0.8564430000000000    0.7523450000000000 Bi
   0.2606470000000000    0.8535220000000000    0.2349480000000000 P
   0.7393530000000000    0.1464780000000000    0.7650520000000000 P
   0.6850600000000000    0.6420790000000000    0.3578140000000000 P
   0.3149400000000000    0.3579210000000000    0.6421860000000000 P
   0.6846640000000001    0.9707370000000000    0.8648830000000000 O
   0.1390730000000000    0.9224070000000000    0.3809760000000000 O
   0.8651130000000000    0.3095980000000000    0.9553140000000000 O
   0.7214620000000000    0.7549840000000000    0.1929540000000000 O
   0.4065170000000000    0.5738240000000000    0.7336160000000000 O
   0.4850880000000000    0.7593540000000000    0.4044810000000000 O
   0.1348870000000000    0.6904020000000000    0.0446860000000000 O
   0.5934830000000000    0.4261760000000000    0.2663840000000000 O
   0.3153360000000000    0.0292630000000000    0.1351170000000000 O
   0.2785380000000000    0.2450160000000000    0.8070460000000000 O
   0.8790720000000000    0.6483250000000000    0.5873090000000000 O
   0.5149120000000000    0.2406460000000000    0.5955190000000000 O
   0.8609270000000000    0.0775930000000000    0.6190240000000000 O
   0.1209280000000000    0.3516750000000000    0.4126910000000000 O
