pymatgen with grid density = 1128 / number of atoms
0
Gamma
2 2 1
