pymatgen with grid density = 1378 / number of atoms
0
Gamma
3 2 1
