Li28 Nd10 Si22 N38 O14 F4
1.0
   0.0000000000000000    7.7081792699999996    0.0000000000000000
   0.0000000000000000    0.0000000000000000   10.0814428399999994
  17.2012788699999994    0.0000000000000000    0.0000000000000000
Li Nd Si N O F
28 10 22 38 14 4
direct
   0.4981266100000000    0.3765651300000000    0.8839479099999999 Li
   0.4971236200000000    0.3759675000000000    0.6155984400000000 Li
   0.0018733900000000    0.3765651300000000    0.8839479099999999 Li
   0.0028763800000000    0.3759675000000000    0.6155984400000000 Li
   0.5028763800000000    0.6240325000000000    0.1155984400000000 Li
   0.5018733900000000    0.6234348700000000    0.3839479100000000 Li
   0.9971236200000000    0.6240325000000000    0.1155984400000000 Li
   0.9981266100000000    0.6234348700000000    0.3839479100000000 Li
   0.7500000000000000    0.4575817500000000    0.0124570500000000 Li
   0.7500000000000000    0.4556090300000000    0.4875675500000000 Li
   0.2500000000000000    0.5443909700000000    0.9875675500000000 Li
   0.2500000000000000    0.5424182500000000    0.5124570500000000 Li
   0.7500000000000000    0.5282996300000000    0.8508879100000000 Li
   0.7500000000000000    0.5277081700000000    0.6490143100000000 Li
   0.2500000000000000    0.4722918300000000    0.1490143100000000 Li
   0.2500000000000000    0.4717003700000000    0.3508879100000000 Li
   0.7500000000000000    0.7555621300000001    0.0662088000000000 Li
   0.7500000000000000    0.7503432700000000    0.4354498100000000 Li
   0.2500000000000000    0.2496567300000000    0.9354498100000000 Li
   0.2500000000000000    0.2444378700000000    0.5662088000000000 Li
   0.4115634600000000    0.0098123100000000    0.8275112999999999 Li
   0.4024188200000000    0.0125672300000000    0.6712312900000000 Li
   0.0884365400000000    0.0098123100000000    0.8275112999999999 Li
   0.0975811800000000    0.0125672300000000    0.6712312900000000 Li
   0.5975811800000000    0.9874327700000000    0.1712312900000000 Li
   0.5884365400000000    0.9901876900000000    0.3275113000000000 Li
   0.9024188200000000    0.9874327700000000    0.1712312900000000 Li
   0.9115634600000000    0.9901876900000000    0.3275113000000000 Li
   0.5112336000000000    0.9975887800000000    0.0047758500000000 Nd
   0.4887664000000000    0.0024112200000000    0.5047758500000000 Nd
   0.9887664000000000    0.9975887800000000    0.0047758500000000 Nd
   0.0112336000000000    0.0024112200000000    0.5047758500000000 Nd
   0.2500000000000000    0.8176115500000000    0.2499324400000000 Nd
   0.7500000000000000    0.1823884500000000    0.7499324400000000 Nd
   0.4913807900000000    0.2722912200000000    0.2500020400000000 Nd
   0.0086192100000000    0.2722912200000000    0.2500020400000000 Nd
   0.5086192100000000    0.7277087800000001    0.7500020400000000 Nd
   0.9913807900000000    0.7277087800000001    0.7500020400000000 Nd
   0.4553010900000000    0.3029182000000000    0.0639173800000000 Si
   0.4552703900000000    0.3028129300000000    0.4358876000000000 Si
   0.0446989100000000    0.3029182000000000    0.0639173800000000 Si
   0.0447296100000000    0.3028129300000000    0.4358876000000000 Si
   0.5447296100000000    0.6971870700000000    0.9358876000000000 Si
   0.5446989100000000    0.6970818000000000    0.5639173800000000 Si
   0.9552703900000000    0.6971870700000000    0.9358876000000000 Si
   0.9553010900000000    0.6970818000000000    0.5639173800000000 Si
   0.7500000000000000    0.7412981700000000    0.2501654500000000 Si
   0.2500000000000000    0.2587018300000000    0.7501654500000000 Si
   0.7500000000000000    0.4784452300000000    0.1577028700000000 Si
   0.7500000000000000    0.4783214900000000    0.3422141700000000 Si
   0.2500000000000000    0.5216785100000000    0.8422141700000000 Si
   0.2500000000000000    0.5215547699999999    0.6577028700000001 Si
   0.2500000000000000    0.7710602800000000    0.0671234900000000 Si
   0.2500000000000000    0.7713463100000000    0.4325331100000000 Si
   0.7500000000000000    0.2286536900000000    0.9325331100000001 Si
   0.7500000000000000    0.2289397200000000    0.5671234900000000 Si
   0.2500000000000000    0.0820596800000000    0.1484919900000000 Si
   0.2500000000000000    0.0820634200000000    0.3517744400000000 Si
   0.7500000000000000    0.9179365800000000    0.8517744400000000 Si
   0.7500000000000000    0.9179403200000000    0.6484919900000000 Si
   0.5573083800000000    0.8433829700000000    0.8783818400000000 N
   0.5581566600000000    0.8425219000000000    0.6219768300000000 N
   0.9426916200000000    0.8433829700000000    0.8783818400000000 N
   0.9418433400000000    0.8425219000000000    0.6219768300000000 N
   0.4418433400000000    0.1574781000000000    0.1219768300000000 N
   0.4426916200000000    0.1566170300000000    0.3783818400000000 N
   0.0581566600000000    0.1574781000000000    0.1219768300000000 N
   0.0573083800000000    0.1566170300000000    0.3783818400000000 N
   0.5605977900000000    0.4240196600000000    0.1173294500000000 N
   0.5603195100000000    0.4237486000000000    0.3821212400000000 N
   0.9394022100000000    0.4240196600000000    0.1173294500000000 N
   0.9396804900000000    0.4237486000000000    0.3821212400000000 N
   0.4396804900000000    0.5762514000000000    0.8821212400000000 N
   0.4394022100000000    0.5759803400000000    0.6173294499999999 N
   0.0603195100000000    0.5762514000000000    0.8821212400000000 N
   0.0605977900000000    0.5759803400000000    0.6173294499999999 N
   0.5563434700000000    0.2540794400000000    0.9786791700000000 N
   0.5578204200000000    0.2558013100000000    0.5209222999999999 N
   0.9436565300000000    0.2540794400000000    0.9786791700000000 N
   0.9421795800000000    0.2558013100000000    0.5209222999999999 N
   0.4421795800000000    0.7441986900000001    0.0209223000000000 N
   0.4436565300000000    0.7459205600000000    0.4786791700000000 N
   0.0578204200000000    0.7441986900000001    0.0209223000000000 N
   0.0563434700000000    0.7459205600000000    0.4786791700000000 N
   0.2500000000000000    0.3606691400000000    0.0407788200000000 N
   0.2500000000000000    0.3605373200000000    0.4587134600000000 N
   0.7500000000000000    0.6394626800000000    0.9587134600000000 N
   0.7500000000000000    0.6393308599999999    0.5407788200000000 N
   0.7500000000000000    0.9336908000000000    0.7500870600000000 N
   0.2500000000000000    0.0663092000000000    0.2500870600000000 N
   0.2500000000000000    0.9287856799999999    0.1046354900000000 N
   0.2500000000000000    0.9282097499999999    0.3946237900000000 N
   0.7500000000000000    0.0717902500000000    0.8946237900000000 N
   0.7500000000000000    0.0712143200000000    0.6046354900000001 N
   0.7500000000000000    0.6470465500000000    0.1662589600000000 N
   0.7500000000000000    0.6472164900000000    0.3342445400000000 N
   0.2500000000000000    0.3527835100000000    0.8342445400000000 N
   0.2500000000000000    0.3529534500000000    0.6662589600000000 N
   0.5731438900000000    0.8435085100000000    0.2504754800000000 O
   0.9268561100000000    0.8435085100000000    0.2504754800000000 O
   0.4268561100000000    0.1564914900000000    0.7504754800000000 O
   0.0731438900000000    0.1564914900000000    0.7504754800000000 O
   0.7500000000000000    0.3339662900000000    0.8553174700000000 O
   0.7500000000000000    0.3334661800000000    0.6447579400000000 O
   0.2500000000000000    0.6665338200000001    0.1447579400000000 O
   0.2500000000000000    0.6660337100000000    0.3553174700000000 O
   0.2500000000000000    0.5914766600000000    0.7498984000000000 O
   0.7500000000000000    0.4085233400000000    0.2498984000000000 O
   0.7500000000000000    0.6113090200000000    0.7498985600000000 O
   0.2500000000000000    0.3886909800000000    0.2498985600000000 O
   0.7500000000000000    0.9516960300000000    0.0781403600000000 O
   0.2500000000000000    0.0483039700000000    0.5781403600000000 O
   0.7500000000000000    0.0935495300000000    0.2511397800000000 F
   0.2500000000000000    0.9064504700000000    0.7511397800000000 F
   0.7500000000000000    0.9476433600000000    0.4144657600000000 F
   0.2500000000000000    0.0523566400000000    0.9144657600000000 F
