ALGO = Fast
EDIFF = 0.0031000000000000003
ENCUT = 520
IBRION = 2
ISIF = 3
ISMEAR = -5
ISPIN = 2
LASPH = True
LORBIT = 11
LREAL = Auto
LWAVE = False
MAGMOM = 12*-0.0 12*-0.001 6*0.002 6*0.007 6*0.018 6*0.003 6*0.019 6*0.008 2*1.404
NELM = 100
NSW = 99
PREC = Accurate
SIGMA = 0.05
