K6 Li6 P12 O38
1.0
   6.1935669999999998   -7.6312660000000001    0.0000000000000000
   6.1935669999999998    7.6312660000000001    0.0000000000000000
  -3.2091289999999999    0.0000000000000000    9.2896710000000002
K Li P O
6 6 12 38
direct
   0.5295820000000000    0.9410410000000000    0.7843740000000000 K
   0.7843740000000000    0.5295820000000000    0.9410410000000000 K
   0.9410410000000000    0.7843740000000000    0.5295820000000000 K
   0.4704180000000000    0.0589590000000000    0.2156260000000000 K
   0.2156260000000000    0.4704180000000000    0.0589590000000000 K
   0.0589590000000000    0.2156260000000000    0.4704180000000000 K
   0.0182220000000000    0.4836490000000000    0.7292149999999999 Li
   0.7292149999999999    0.0182220000000000    0.4836490000000000 Li
   0.4836490000000000    0.7292149999999999    0.0182220000000000 Li
   0.9817780000000000    0.5163510000000000    0.2707850000000000 Li
   0.2707850000000000    0.9817780000000000    0.5163510000000000 Li
   0.5163510000000000    0.2707850000000000    0.9817780000000000 Li
   0.1964040000000000    0.0744150000000000    0.8323510000000000 P
   0.8323510000000000    0.1964040000000000    0.0744150000000000 P
   0.0744150000000000    0.8323510000000000    0.1964040000000000 P
   0.8035960000000000    0.9255850000000000    0.1676490000000000 P
   0.1676490000000000    0.8035960000000000    0.9255850000000000 P
   0.9255850000000000    0.1676490000000000    0.8035960000000000 P
   0.2686350000000000    0.6423350000000000    0.5027620000000000 P
   0.5027620000000000    0.2686350000000000    0.6423350000000000 P
   0.6423350000000000    0.5027620000000000    0.2686350000000000 P
   0.7313650000000000    0.3576650000000000    0.4972380000000000 P
   0.4972380000000000    0.7313650000000000    0.3576650000000000 P
   0.3576650000000000    0.4972380000000000    0.7313650000000000 P
   0.0873560000000000    0.1648240000000000    0.8852240000000000 O
   0.8852240000000000    0.0873560000000000    0.1648240000000000 O
   0.1648240000000000    0.8852240000000000    0.0873560000000000 O
   0.9126440000000000    0.8351760000000000    0.1147760000000000 O
   0.1147760000000000    0.9126440000000000    0.8351760000000000 O
   0.8351760000000000    0.1147760000000000    0.9126440000000000 O
   0.1932730000000000    0.0702320000000000    0.6785170000000000 O
   0.6785170000000000    0.1932730000000000    0.0702320000000000 O
   0.0702320000000000    0.6785170000000000    0.1932730000000000 O
   0.8067270000000000    0.9297680000000000    0.3214830000000000 O
   0.3214830000000000    0.8067270000000000    0.9297680000000000 O
   0.9297680000000000    0.3214830000000000    0.8067270000000000 O
   0.9484300000000000    0.3346220000000000    0.1290770000000000 O
   0.1290770000000000    0.9484300000000000    0.3346220000000000 O
   0.3346220000000000    0.1290770000000000    0.9484300000000000 O
   0.0515700000000000    0.6653780000000000    0.8709230000000000 O
   0.8709230000000000    0.0515700000000000    0.6653780000000000 O
   0.6653780000000000    0.8709230000000000    0.0515700000000000 O
   0.3743360000000000    0.6134250000000000    0.6372580000000000 O
   0.6372580000000000    0.3743360000000000    0.6134250000000000 O
   0.6134250000000000    0.6372580000000000    0.3743360000000000 O
   0.6256640000000000    0.3865750000000000    0.3627420000000000 O
   0.3627420000000000    0.6256640000000000    0.3865750000000000 O
   0.3865750000000000    0.3627420000000000    0.6256640000000000 O
   0.1331040000000000    0.5229070000000000    0.4408260000000000 O
   0.4408260000000000    0.1331040000000000    0.5229070000000000 O
   0.5229070000000000    0.4408260000000000    0.1331040000000000 O
   0.8668960000000000    0.4770930000000000    0.5591739999999999 O
   0.5591739999999999    0.8668960000000000    0.4770930000000000 O
   0.4770930000000000    0.5591739999999999    0.8668960000000000 O
   0.4483020000000000    0.7384650000000000    0.2053200000000000 O
   0.2053200000000000    0.4483020000000000    0.7384650000000000 O
   0.7384650000000000    0.2053200000000000    0.4483020000000000 O
   0.5516980000000000    0.2615350000000000    0.7946800000000001 O
   0.7946800000000001    0.5516980000000000    0.2615350000000000 O
   0.2615350000000000    0.7946800000000001    0.5516980000000000 O
   0.7444880000000000    0.7444880000000000    0.7444880000000000 O
   0.2555120000000000    0.2555120000000000    0.2555120000000000 O
