Li2 Ge2 P2 C2 O14
1.0
   6.2325609999999996    0.0000000000000000    0.0000000000000000
   0.0000000000000000    5.0655080000000003    0.0000000000000000
   0.0000000000000000    0.6837660000000000    8.5957550000000005
Li Ge P C O
2 2 2 2 14
direct
   0.4749010000000000    0.7718600000000000    0.8166690000000000 Li
   0.9749010000000000    0.2281400000000000    0.1833310000000000 Li
   0.2485150000000000    0.2112020000000000    0.6626670000000000 Ge
   0.7485150000000000    0.7887980000000000    0.3373330000000000 Ge
   0.7542190000000000    0.2652510000000000    0.5689330000000000 P
   0.2542190000000000    0.7347490000000000    0.4310670000000000 P
   0.2532900000000000    0.2747380000000000    0.9343100000000000 C
   0.7532900000000000    0.7252620000000000    0.0656900000000000 C
   0.7307640000000000    0.6861450000000000    0.9278419999999999 O
   0.2551910000000000    0.0389930000000000    0.8738330000000000 O
   0.2710010000000000    0.4677010000000000    0.8172450000000000 O
   0.9484690000000000    0.1960770000000000    0.6735250000000000 O
   0.5586340000000000    0.1795950000000000    0.6696950000000000 O
   0.2598000000000000    0.8734940000000000    0.5848870000000000 O
   0.7473660000000000    0.5706760000000000    0.5228240000000000 O
   0.2473660000000000    0.4293240000000000    0.4771760000000000 O
   0.7598000000000000    0.1265060000000000    0.4151130000000000 O
   0.0586340000000000    0.8204050000000001    0.3303050000000000 O
   0.4484690000000000    0.8039230000000001    0.3264750000000000 O
   0.7710010000000000    0.5322990000000000    0.1827550000000000 O
   0.7551909999999999    0.9610069999999999    0.1261670000000000 O
   0.2307640000000000    0.3138550000000000    0.0721580000000000 O
