pymatgen with grid density = 1384 / number of atoms
0
Gamma
5 3 3
