Li4 Zn4 S4 O16 F4
1.0
   6.3750479999999996    0.0000000000000000    0.0000000000000000
   0.0000000000000000    7.5648249999999999    0.0000000000000000
   0.0000000000000000    0.0000000000000000    7.5792130000000002
Li Zn S O F
4 4 4 16 4
direct
   0.0000000000000000    0.0000000000000000    0.0000000000000000 Li
   0.5000000000000000    0.5000000000000000    0.5000000000000000 Li
   0.5000000000000000    0.0000000000000000    0.0000000000000000 Li
   0.0000000000000000    0.5000000000000000    0.5000000000000000 Li
   0.2500000000000000    0.1418940000000000    0.7055280000000000 Zn
   0.2500000000000000    0.6418940000000000    0.7944720000000000 Zn
   0.7500000000000000    0.8581060000000000    0.2944720000000000 Zn
   0.7500000000000000    0.3581060000000000    0.2055280000000000 Zn
   0.2500000000000000    0.3683260000000000    0.1414900000000000 S
   0.2500000000000000    0.8683260000000000    0.3585100000000000 S
   0.7500000000000000    0.6316740000000000    0.8585100000000000 S
   0.7500000000000000    0.1316740000000000    0.6414900000000000 S
   0.5631180000000000    0.1318320000000000    0.7613360000000000 O
   0.9368820000000000    0.6318319999999999    0.7386640000000000 O
   0.0631180000000000    0.8681680000000001    0.2386640000000000 O
   0.4368820000000000    0.3681680000000000    0.2613360000000000 O
   0.4368820000000000    0.8681680000000001    0.2386640000000000 O
   0.0631180000000000    0.3681680000000000    0.2613360000000000 O
   0.9368820000000000    0.1318320000000000    0.7613360000000000 O
   0.5631180000000000    0.6318319999999999    0.7386640000000000 O
   0.2500000000000000    0.2066740000000000    0.0296230000000000 O
   0.2500000000000000    0.7066740000000000    0.4703770000000000 O
   0.7500000000000000    0.7933260000000000    0.9703770000000000 O
   0.7500000000000000    0.2933260000000000    0.5296230000000000 O
   0.2500000000000000    0.0303910000000000    0.4658580000000000 O
   0.2500000000000000    0.5303909999999999    0.0341420000000000 O
   0.7500000000000000    0.9696090000000001    0.5341420000000000 O
   0.7500000000000000    0.4696090000000000    0.9658580000000000 O
   0.2500000000000000    0.4005260000000000    0.6361790000000001 F
   0.2500000000000000    0.9005260000000000    0.8638209999999999 F
   0.7500000000000000    0.5994740000000000    0.3638210000000000 F
   0.7500000000000000    0.0994740000000000    0.1361790000000000 F
