ALGO = Fast
EDIFF = 0.0032
ENCUT = 520
IBRION = 2
ISIF = 3
ISMEAR = -5
ISPIN = 2
LASPH = True
LORBIT = 11
LREAL = Auto
LWAVE = False
MAGMOM = 4*0.0 4*0.003 4*0.008 12*0.001 4*0.377 4*0.009 4*0.001 4*0.009 4*-0.0 4*0.004 8*0.001 4*0.005 4*0.01
NELM = 100
NSW = 99
PREC = Accurate
SIGMA = 0.05
