pymatgen with grid density = 1028 / number of atoms
0
Gamma
1 3 2
