ALGO = Fast
EDIFF = 0.004
ENCUT = 520
IBRION = 2
ISIF = 3
ISMEAR = -5
ISPIN = 2
LASPH = True
LMAXMIX = 6
LORBIT = 11
LREAL = Auto
LWAVE = False
MAGMOM = 12*-0.002 8*6.318 2*6.282 2*6.264 2*0.012 1*0.013 1*0.012 1*0.013 1*0.012 2*0.013 3*-0.091 1*-0.086 1*-0.083 2*-0.091 1*-0.086 1*-0.083 1*-0.091 1*-0.086 1*-0.081 1*-0.091 1*-0.086 1*-0.081 1*-0.091 1*-0.083 1*-0.086 1*-0.083 1*-0.086 1*-0.081 1*-0.086 1*-0.081 1*-0.086 1*-0.079 1*-0.083 1*-0.079 1*-0.083 1*-0.082 1*-0.083 1*-0.082 1*-0.083 1*-0.079 1*-0.081 1*-0.079 1*-0.081 1*-0.082 1*-0.081 1*-0.082 1*-0.081 2*-0.082 2*-0.079 2*-0.082 2*-0.079
NELM = 100
NSW = 99
PREC = Accurate
SIGMA = 0.05
