Li12 Eu12 Te8 O48
1.0
  -6.3620981900000002   -6.3620981900000002    6.3620981900000002
  -6.3620981900000002    6.3620981900000002   -6.3620981900000002
   6.3620981900000002   -6.3620981900000002   -6.3620981900000002
Li Eu Te O
12 12 8 48
direct
   0.6250000000000000    0.3750000000000000    0.7500000000000000 Li
   0.3750000000000000    0.6250000000000000    0.2500000000000000 Li
   0.8750000000000000    0.1250000000000000    0.2500000000000000 Li
   0.3750000000000000    0.7500000000000000    0.6250000000000000 Li
   0.6250000000000000    0.2500000000000000    0.3750000000000000 Li
   0.1250000000000000    0.8750000000000000    0.7500000000000000 Li
   0.1250000000000000    0.2500000000000000    0.8750000000000000 Li
   0.8750000000000000    0.7500000000000000    0.1250000000000000 Li
   0.7500000000000000    0.6250000000000000    0.3750000000000000 Li
   0.2500000000000000    0.3750000000000000    0.6250000000000000 Li
   0.2500000000000000    0.8750000000000000    0.1250000000000000 Li
   0.7500000000000000    0.1250000000000000    0.8750000000000000 Li
   0.8750000000000000    0.6250000000000000    0.7500000000000000 Eu
   0.1250000000000000    0.3750000000000000    0.2500000000000000 Eu
   0.6250000000000000    0.8750000000000000    0.2500000000000000 Eu
   0.6250000000000000    0.7500000000000000    0.8750000000000000 Eu
   0.8750000000000000    0.2500000000000000    0.6250000000000000 Eu
   0.3750000000000000    0.1250000000000000    0.7500000000000000 Eu
   0.3750000000000000    0.2500000000000000    0.1250000000000000 Eu
   0.1250000000000000    0.7500000000000000    0.3750000000000000 Eu
   0.7500000000000000    0.8750000000000000    0.6250000000000000 Eu
   0.2500000000000000    0.1250000000000000    0.3750000000000000 Eu
   0.2500000000000000    0.6250000000000000    0.8750000000000000 Eu
   0.7500000000000000    0.3750000000000000    0.1250000000000000 Eu
  -0.0000000000000000    0.0000000000000000   -0.0000000000000000 Te
   0.5000000000000000    0.0000000000000000    0.5000000000000000 Te
   0.5000000000000000    0.5000000000000000   -0.0000000000000000 Te
  -0.0000000000000000    0.0000000000000000    0.5000000000000000 Te
   0.0000000000000000    0.5000000000000000    0.5000000000000000 Te
   0.5000000000000000    0.5000000000000000    0.5000000000000000 Te
   0.5000000000000000    0.0000000000000000   -0.0000000000000000 Te
  -0.0000000000000000    0.5000000000000000   -0.0000000000000000 Te
   0.6948472300000000    0.6158233100000000    0.5238703700000000 O
   0.3051527700000000    0.3841766900000000    0.4761296300000000 O
   0.8051527700000000    0.8290231400000000    0.4209760800000000 O
   0.4080470600000000    0.8841766900000000    0.0790239200000000 O
   0.6158233100000000    0.5238703700000000    0.6948472300000000 O
   0.6948472300000000    0.0790239200000000    0.6709768600000000 O
   0.1948472300000000    0.1709768600000000    0.5790239200000000 O
   0.5919529400000000    0.1158233100000000    0.9209760800000000 O
   0.3841766900000000    0.4761296300000000    0.3051527700000000 O
   0.3051527700000000    0.9209760800000000    0.3290231400000000 O
   0.0919529400000000    0.6709768600000000    0.9761296300000000 O
   0.8290231400000000    0.4209760800000000    0.8051527700000000 O
   0.8051527700000000    0.9761296300000000    0.8841766900000000 O
   0.9080470600000000    0.3290231400000000    0.0238703700000000 O
   0.1709768600000000    0.5790239200000000    0.1948472300000000 O
   0.1948472300000000    0.0238703700000000    0.1158233100000000 O
   0.8841766900000000    0.0790239200000000    0.4080470600000000 O
   0.4080470600000000    0.5238703700000000    0.8290231400000000 O
   0.1158233100000000    0.9209760800000000    0.5919529400000000 O
   0.5919529400000000    0.4761296300000000    0.1709768600000000 O
   0.6709768600000000    0.9761296300000000    0.0919529400000000 O
   0.0919529400000000    0.4209760800000000    0.6158233100000000 O
   0.3290231400000000    0.0238703700000000    0.9080470600000000 O
   0.9080470600000000    0.5790239200000000    0.3841766900000000 O
   0.5238703700000000    0.6948472300000000    0.6158233100000000 O
   0.6158233100000000    0.0919529400000000    0.4209760800000000 O
   0.4761296300000000    0.3051527700000000    0.3841766900000000 O
   0.3841766900000000    0.9080470600000000    0.5790239200000000 O
   0.0790239200000000    0.4080470600000000    0.8841766900000000 O
   0.8841766900000000    0.8051527700000000    0.9761296300000000 O
   0.9209760800000000    0.5919529400000000    0.1158233100000000 O
   0.1158233100000000    0.1948472300000000    0.0238703700000000 O
   0.9761296300000000    0.0919529400000000    0.6709768600000000 O
   0.6709768600000000    0.6948472300000000    0.0790239200000000 O
   0.0238703700000000    0.9080470600000000    0.3290231400000000 O
   0.3290231400000000    0.3051527700000000    0.9209760800000000 O
   0.4209760800000000    0.8051527700000000    0.8290231400000000 O
   0.8290231400000000    0.4080470600000000    0.5238703700000000 O
   0.5790239200000000    0.1948472300000000    0.1709768600000000 O
   0.1709768600000000    0.5919529400000000    0.4761296300000000 O
   0.0790239200000000    0.6709768600000000    0.6948472300000000 O
   0.9209760800000000    0.3290231400000000    0.3051527700000000 O
   0.9761296300000000    0.8841766900000000    0.8051527700000000 O
   0.0238703700000000    0.1158233100000000    0.1948472300000000 O
   0.4209760800000000    0.6158233100000000    0.0919529400000000 O
   0.5790239200000000    0.3841766900000000    0.9080470600000000 O
   0.5238703700000000    0.8290231400000000    0.4080470600000000 O
   0.4761296300000000    0.1709768600000000    0.5919529400000000 O
