Li2 Sn6 P12 O40
1.0
   5.3047459999999997   -6.9810119999999998    0.0000000000000000
   5.3047459999999997    6.9810119999999998    0.0000000000000000
   0.0000000000000000    0.0000000000000000   12.5179240000000007
Li Sn P O
2 6 12 40
direct
   0.5827410000000000    0.5827410000000000    0.5000000000000000 Li
   0.4172590000000000    0.4172590000000000    0.0000000000000000 Li
   0.1263810000000000    0.1263810000000000    0.0000000000000000 Sn
   0.7028960000000000    0.2971040000000000    0.2500000000000000 Sn
   0.7763550000000000    0.2236450000000000    0.7500000000000000 Sn
   0.2971040000000000    0.7028960000000000    0.7500000000000000 Sn
   0.2236450000000000    0.7763550000000000    0.2500000000000000 Sn
   0.8736190000000000    0.8736190000000000    0.5000000000000000 Sn
   0.0926780000000000    0.3779770000000000    0.3179910000000000 P
   0.3779770000000000    0.0926780000000000    0.6820090000000000 P
   0.2193430000000000    0.3171740000000000    0.7774500000000000 P
   0.3171740000000000    0.2193430000000000    0.2225500000000000 P
   0.7145780000000000    0.1451310000000000    0.0164040000000000 P
   0.1451310000000000    0.7145780000000000    0.9835960000000000 P
   0.8548690000000000    0.2854220000000000    0.4835960000000000 P
   0.2854220000000000    0.8548690000000000    0.5164040000000000 P
   0.6828260000000000    0.7806570000000000    0.7225500000000000 P
   0.7806570000000000    0.6828260000000000    0.2774500000000000 P
   0.9073220000000000    0.6220230000000000    0.8179910000000000 P
   0.6220230000000000    0.9073220000000000    0.1820090000000000 P
   0.2430070000000000    0.1833520000000000    0.6913140000000000 O
   0.1833520000000000    0.2430070000000000    0.3086860000000000 O
   0.3641980000000000    0.0359020000000000    0.5607080000000000 O
   0.0359020000000000    0.3641980000000000    0.4392920000000000 O
   0.3162520000000000    0.3263490000000000    0.1265280000000000 O
   0.3263490000000000    0.3162520000000000    0.8734720000000000 O
   0.0494610000000000    0.6658680000000000    0.7428840000000000 O
   0.6658680000000000    0.0494610000000000    0.2571160000000000 O
   0.4692550000000000    0.2658200000000000    0.2903370000000000 O
   0.2658200000000000    0.4692550000000000    0.7096630000000000 O
   0.9553100000000000    0.7369230000000000    0.3096220000000000 O
   0.7369230000000000    0.9553100000000000    0.6903780000000000 O
   0.2111100000000000    0.5369250000000000    0.3047800000000000 O
   0.5369250000000000    0.2111100000000000    0.6952199999999999 O
   0.1434510000000000    0.6512580000000000    0.0963770000000000 O
   0.6512580000000000    0.1434510000000000    0.9036230000000000 O
   0.1084460000000000    0.8238500000000000    0.5299140000000000 O
   0.8238500000000000    0.1084460000000000    0.4700860000000000 O
   0.2550990000000000    0.6462370000000000    0.9105470000000000 O
   0.6462370000000000    0.2550990000000000    0.0894530000000000 O
   0.7449010000000000    0.3537630000000000    0.4105470000000000 O
   0.3537630000000000    0.7449010000000000    0.5894530000000000 O
   0.8915540000000000    0.1761500000000000    0.0299140000000000 O
   0.1761500000000000    0.8915540000000000    0.9700860000000000 O
   0.8565490000000000    0.3487420000000000    0.5963770000000000 O
   0.3487420000000000    0.8565490000000000    0.4036230000000000 O
   0.7888900000000000    0.4630750000000000    0.8047800000000001 O
   0.4630750000000000    0.7888900000000000    0.1952200000000000 O
   0.0446900000000000    0.2630770000000000    0.8096220000000000 O
   0.2630770000000000    0.0446900000000000    0.1903780000000000 O
   0.5307450000000000    0.7341800000000001    0.7903370000000000 O
   0.7341800000000001    0.5307450000000000    0.2096630000000000 O
   0.9505390000000000    0.3341320000000000    0.2428840000000000 O
   0.3341320000000000    0.9505390000000000    0.7571160000000000 O
   0.6837480000000000    0.6736510000000000    0.6265280000000000 O
   0.6736510000000000    0.6837480000000000    0.3734720000000000 O
   0.9640980000000000    0.6358020000000000    0.9392920000000000 O
   0.6358020000000000    0.9640980000000000    0.0607080000000000 O
   0.8166480000000000    0.7569930000000000    0.8086860000000000 O
   0.7569930000000000    0.8166480000000000    0.1913140000000000 O
