pymatgen with grid density = 1277 / number of atoms
0
Monkhorst
2 4 2
