pymatgen with grid density = 1142 / number of atoms
0
Monkhorst
2 2 2
