ALGO = Fast
EDIFF = 0.0018000000000000002
ENCUT = 520
IBRION = 2
ISIF = 3
ISMEAR = -5
ISPIN = 2
LASPH = True
LMAXMIX = 6
LORBIT = 11
LREAL = Auto
LWAVE = False
MAGMOM = 2*0.0 2*-0.982 4*-0.0 4*-0.001 4*0.003 1*0.008 1*0.007 1*0.008 1*0.007 4*0.001 4*0.0 8*0.003
NELM = 100
NSW = 99
PREC = Accurate
SIGMA = 0.05
