Li2 Ce2 P8 O24
1.0
   3.5904769999999999    8.3486100000000008    0.0000000000000000
  -3.5904769999999999    8.3486100000000008    0.0000000000000000
   0.0000000000000000    5.9005109999999998    8.0144479999999998
Li Ce P O
2 2 8 24
direct
   0.8002590000000001    0.1997410000000000    0.2500000000000000 Li
   0.1997410000000000    0.8002590000000001    0.7500000000000000 Li
   0.3025950000000000    0.6974050000000001    0.2500000000000000 Ce
   0.6974050000000001    0.3025950000000000    0.7500000000000000 Ce
   0.5123080000000000    0.1888630000000000    0.5973270000000001 P
   0.8111370000000000    0.4876920000000000    0.9026729999999999 P
   0.4876920000000000    0.8111370000000000    0.4026730000000000 P
   0.1888630000000000    0.5123080000000000    0.0973270000000000 P
   0.9200469999999999    0.8027380000000000    0.6642950000000000 P
   0.1972620000000000    0.0799530000000000    0.8357050000000000 P
   0.0799530000000000    0.1972620000000000    0.3357050000000000 P
   0.8027380000000000    0.9200469999999999    0.1642950000000000 P
   0.5260629999999999    0.3215510000000000    0.4180250000000000 O
   0.6784490000000000    0.4739370000000000    0.0819750000000000 O
   0.4739370000000000    0.6784490000000000    0.5819750000000000 O
   0.3215510000000000    0.5260629999999999    0.9180250000000000 O
   0.4872920000000000    0.2538740000000000    0.7219760000000000 O
   0.7461260000000000    0.5127080000000001    0.7780240000000000 O
   0.5127080000000001    0.7461260000000000    0.2780240000000000 O
   0.2538740000000000    0.4872920000000000    0.2219760000000000 O
   0.8465740000000000    0.6664020000000000    0.8442520000000000 O
   0.3335980000000000    0.1534260000000000    0.6557480000000000 O
   0.1534260000000000    0.3335980000000000    0.1557480000000000 O
   0.6664020000000000    0.8465740000000000    0.3442520000000000 O
   0.7227200000000000    0.9541090000000000    0.5906530000000000 O
   0.0458910000000000    0.2772800000000000    0.9093470000000000 O
   0.2772800000000000    0.0458910000000000    0.4093470000000000 O
   0.9541090000000000    0.7227200000000000    0.0906530000000000 O
   0.1051660000000000    0.6663140000000000    0.5496410000000000 O
   0.3336860000000000    0.8948340000000000    0.9503590000000000 O
   0.8948340000000000    0.3336860000000000    0.4503590000000000 O
   0.6663140000000000    0.1051660000000000    0.0496410000000000 O
   0.9398060000000000    0.9269830000000000    0.7029450000000000 O
   0.0730170000000000    0.0601940000000000    0.7970550000000000 O
   0.0601940000000000    0.0730170000000000    0.2970550000000000 O
   0.9269830000000000    0.9398060000000000    0.2029450000000000 O
