Rb8 Li8 B32 O56
1.0
   8.8112700000000004    0.0000000000000000    0.0000000000000000
   0.0000000000000000   11.4588760000000001    0.0000000000000000
   0.0000000000000000    0.0000000000000000   13.0720620000000007
Rb Li B O
8 8 32 56
direct
   0.3662280000000000    0.4545810000000000    0.0997900000000000 Rb
   0.8662280000000000    0.0454190000000000    0.9002100000000000 Rb
   0.6337720000000000    0.9545810000000000    0.4002100000000000 Rb
   0.1337720000000000    0.5454190000000000    0.5997900000000000 Rb
   0.6916560000000000    0.3733960000000000    0.7925670000000000 Rb
   0.1916560000000000    0.1266040000000000    0.2074330000000000 Rb
   0.3083440000000000    0.8733960000000000    0.7074330000000000 Rb
   0.8083440000000000    0.6266040000000000    0.2925670000000000 Rb
   0.7548000000000000    0.6728170000000000    0.8078959999999999 Li
   0.2548000000000000    0.8271830000000000    0.1921040000000000 Li
   0.2452000000000000    0.1728170000000000    0.6921040000000001 Li
   0.7452000000000000    0.3271830000000000    0.3078960000000000 Li
   0.0815250000000000    0.6460660000000000    0.8812750000000000 Li
   0.5815250000000000    0.8539340000000000    0.1187250000000000 Li
   0.9184750000000000    0.1460660000000000    0.6187250000000000 Li
   0.4184750000000000    0.3539340000000000    0.3812750000000000 Li
   0.3641030000000000    0.7240490000000001    0.9877580000000000 B
   0.8641030000000000    0.7759509999999999    0.0122420000000000 B
   0.6358970000000000    0.2240490000000000    0.5122420000000000 B
   0.1358970000000000    0.2759510000000000    0.4877580000000000 B
   0.4301660000000000    0.5974790000000000    0.8363429999999999 B
   0.9301660000000000    0.9025210000000000    0.1636570000000000 B
   0.5698340000000000    0.0974790000000000    0.6636570000000001 B
   0.0698340000000000    0.4025210000000000    0.3363430000000000 B
   0.2375060000000000    0.4218170000000000    0.8414540000000000 B
   0.7375060000000000    0.0781830000000000    0.1585460000000000 B
   0.7624940000000000    0.9218170000000000    0.6585460000000000 B
   0.2624940000000000    0.5781830000000000    0.3414540000000000 B
   0.0653400000000000    0.2554190000000000    0.8060090000000000 B
   0.5653400000000000    0.2445810000000000    0.1939910000000000 B
   0.9346600000000000    0.7554190000000000    0.6939910000000000 B
   0.4346600000000000    0.7445810000000000    0.3060090000000000 B
   0.0087480000000000    0.3911030000000000    0.9530860000000000 B
   0.5087480000000000    0.1088970000000000    0.0469140000000000 B
   0.9912520000000000    0.8911030000000000    0.5469140000000000 B
   0.4912520000000000    0.6088970000000000    0.4530860000000000 B
   0.9948330000000000    0.3793230000000000    0.1444500000000000 B
   0.4948330000000000    0.1206770000000000    0.8555500000000000 B
   0.0051670000000000    0.8793230000000000    0.3555500000000000 B
   0.5051670000000000    0.6206770000000000    0.6444500000000000 B
   0.7994740000000000    0.4870810000000000    0.0524670000000000 B
   0.2994740000000000    0.0129190000000000    0.9475330000000000 B
   0.2005260000000000    0.9870810000000000    0.4475330000000000 B
   0.7005260000000000    0.5129190000000000    0.5524670000000000 B
   0.6284970000000000    0.6436080000000000    0.9791910000000000 B
   0.1284970000000000    0.8563920000000000    0.0208090000000000 B
   0.3715030000000000    0.1436080000000000    0.5208090000000000 B
   0.8715030000000000    0.3563920000000000    0.4791910000000000 B
   0.3209940000000000    0.6696920000000000    0.8980860000000001 O
   0.8209940000000000    0.8303080000000000    0.1019140000000000 O
   0.6790060000000000    0.1696920000000000    0.6019139999999999 O
   0.1790060000000000    0.3303080000000000    0.3980860000000000 O
   0.4344850000000000    0.6517550000000000    0.7330070000000000 O
   0.9344850000000000    0.8482450000000000    0.2669930000000000 O
   0.5655150000000000    0.1517550000000000    0.7669930000000000 O
   0.0655150000000000    0.3482450000000000    0.2330070000000000 O
   0.3706590000000000    0.4763130000000000    0.8203930000000000 O
   0.8706590000000000    0.0236870000000000    0.1796070000000000 O
   0.6293410000000000    0.9763130000000000    0.6796070000000000 O
   0.1293410000000000    0.5236870000000000    0.3203930000000000 O
   0.2062580000000000    0.3169180000000000    0.7900910000000000 O
   0.7062580000000001    0.1830820000000000    0.2099090000000000 O
   0.7937419999999999    0.8169180000000000    0.7099090000000000 O
   0.2937420000000000    0.6830820000000000    0.2900910000000000 O
   0.0331400000000000    0.1660980000000000    0.7443149999999999 O
   0.5331399999999999    0.3339020000000000    0.2556850000000000 O
   0.9668600000000001    0.6660980000000000    0.7556850000000001 O
   0.4668600000000000    0.8339020000000000    0.2443150000000000 O
   0.9738840000000000    0.2917810000000000    0.8859720000000000 O
   0.4738840000000000    0.2082190000000000    0.1140280000000000 O
   0.0261160000000000    0.7917810000000000    0.6140280000000000 O
   0.5261160000000000    0.7082190000000000    0.3859720000000000 O
   0.1316970000000000    0.4663880000000000    0.9090020000000000 O
   0.6316970000000000    0.0336120000000000    0.0909980000000000 O
   0.8683030000000000    0.9663880000000000    0.5909980000000000 O
   0.3683030000000000    0.5336120000000000    0.4090020000000000 O
   0.8721060000000000    0.4642510000000000    0.9625400000000000 O
   0.3721060000000000    0.0357490000000000    0.0374600000000000 O
   0.1278940000000000    0.9642510000000000    0.5374600000000000 O
   0.6278940000000000    0.5357490000000000    0.4625400000000000 O
   0.0621030000000000    0.3488380000000000    0.0539460000000000 O
   0.5621030000000000    0.1511620000000000    0.9460540000000000 O
   0.9378970000000000    0.8488380000000000    0.4460540000000000 O
   0.4378970000000000    0.6511620000000000    0.5539460000000000 O
   0.8571130000000000    0.4414240000000000    0.1452520000000000 O
   0.3571130000000000    0.0585760000000000    0.8547480000000000 O
   0.1428870000000000    0.9414240000000000    0.3547480000000000 O
   0.6428870000000000    0.5585760000000000    0.6452520000000000 O
   0.6733590000000000    0.5559010000000000    0.0589130000000000 O
   0.1733590000000000    0.9440990000000000    0.9410870000000000 O
   0.3266410000000000    0.0559010000000000    0.4410870000000000 O
   0.8266410000000000    0.4440990000000000    0.5589130000000000 O
   0.5797320000000000    0.5918610000000000    0.8825670000000000 O
   0.0797320000000000    0.9081390000000000    0.1174330000000000 O
   0.4202680000000000    0.0918610000000000    0.6174330000000000 O
   0.9202680000000000    0.4081390000000000    0.3825670000000000 O
   0.7623970000000000    0.7161180000000000    0.9529660000000000 O
   0.2623970000000000    0.7838820000000000    0.0470340000000000 O
   0.2376030000000000    0.2161180000000000    0.5470340000000000 O
   0.7376030000000000    0.2838820000000000    0.4529660000000000 O
   0.5094840000000000    0.7170460000000000    0.0263060000000000 O
   0.0094840000000000    0.7829540000000000    0.9736939999999999 O
   0.4905160000000000    0.2170460000000000    0.4736940000000000 O
   0.9905160000000000    0.2829540000000000    0.5263060000000001 O
