ALGO = Fast
EDIFF = 0.0006500000000000001
ENCUT = 520
IBRION = 2
ISIF = 3
ISMEAR = -5
ISPIN = 2
LASPH = True
LORBIT = 11
LREAL = Auto
LWAVE = False
MAGMOM = 2*0.002 1*0.001 1*0.004 1*0.0 8*0.001
NELM = 100
NSW = 99
PREC = Accurate
SIGMA = 0.05
