Li1 Sn3 Sb1 P6 O24
1.0
   7.8393720000000000   -4.3718950000000003    0.0000000000000000
   7.8393720000000000    4.3718950000000003    0.0000000000000000
   5.4012349999999998    0.0000000000000000    7.1690920000000000
Li Sn Sb P O
1 3 1 6 24
direct
   0.0023550000000000    0.0023550000000000    0.0023550000000000 Li
   0.1460700000000000    0.1460700000000000    0.1460700000000000 Sn
   0.3572660000000000    0.3572660000000000    0.3572660000000000 Sn
   0.6419130000000000    0.6419130000000000    0.6419130000000000 Sn
   0.8537320000000000    0.8537320000000000    0.8537320000000000 Sb
   0.4581080000000000    0.7509830000000000    0.0378360000000000 P
   0.7509830000000000    0.0378360000000000    0.4581080000000000 P
   0.0378360000000000    0.4581080000000000    0.7509830000000000 P
   0.9607599999999999    0.5449850000000001    0.2448540000000000 P
   0.2448540000000000    0.9607599999999999    0.5449850000000001 P
   0.5449850000000001    0.2448540000000000    0.9607599999999999 P
   0.5200360000000001    0.2680850000000000    0.1310410000000000 O
   0.1310410000000000    0.5200360000000001    0.2680850000000000 O
   0.2755650000000000    0.9212020000000000    0.0589500000000000 O
   0.2680850000000000    0.1310410000000000    0.5200360000000001 O
   0.4426790000000000    0.5807940000000000    0.2155560000000000 O
   0.6250260000000000    0.7878390000000000    0.0113700000000000 O
   0.9212020000000000    0.0589500000000000    0.2755650000000000 O
   0.5807940000000000    0.2155560000000000    0.4426790000000000 O
   0.2155560000000000    0.4426790000000000    0.5807940000000000 O
   0.9856640000000000    0.3845020000000000    0.2067230000000000 O
   0.9377060000000000    0.7317270000000000    0.0714180000000000 O
   0.2067230000000000    0.9856640000000000    0.3845020000000000 O
   0.7878390000000000    0.0113700000000000    0.6250260000000000 O
   0.0589500000000000    0.2755650000000000    0.9212020000000000 O
   0.0113700000000000    0.6250260000000000    0.7878390000000000 O
   0.7810190000000000    0.5723490000000000    0.4104080000000000 O
   0.4104080000000000    0.7810190000000000    0.5723490000000000 O
   0.0714180000000000    0.9377060000000000    0.7317270000000000 O
   0.3845020000000000    0.2067230000000000    0.9856640000000000 O
   0.5723490000000000    0.4104080000000000    0.7810190000000000 O
   0.7233420000000000    0.8685680000000000    0.4895710000000000 O
   0.7317270000000000    0.0714180000000000    0.9377060000000000 O
   0.8685680000000000    0.4895710000000000    0.7233420000000000 O
   0.4895710000000000    0.7233420000000000    0.8685680000000000 O
