Li8 B8 H16 C32 O72
1.0
   5.6559640000000000    0.0000000000000000    0.0000000000000000
   0.0000000000000000   16.0775080000000017    0.0000000000000000
   0.0000000000000000    0.0000000000000000   16.2674319999999994
Li B H C O
8 8 16 32 72
direct
   0.6231840000000000    0.2482390000000000    0.1544280000000000 Li
   0.3768160000000000    0.2517610000000000    0.6544280000000000 Li
   0.8768160000000000    0.7482390000000000    0.8455720000000000 Li
   0.1231840000000000    0.7517610000000000    0.3455720000000000 Li
   0.3768160000000000    0.7517610000000000    0.8455720000000000 Li
   0.6231840000000000    0.7482390000000000    0.3455720000000000 Li
   0.1231840000000000    0.2517610000000000    0.1544280000000000 Li
   0.8768160000000000    0.2482390000000000    0.6544280000000000 Li
   0.7191570000000000    0.4425060000000000    0.9102160000000000 B
   0.2808430000000000    0.0574940000000000    0.4102160000000000 B
   0.7808430000000000    0.9425060000000000    0.0897840000000000 B
   0.2191570000000000    0.5574940000000000    0.5897840000000000 B
   0.2808430000000000    0.5574940000000000    0.0897840000000000 B
   0.7191570000000000    0.9425060000000000    0.5897840000000000 B
   0.2191570000000000    0.0574940000000000    0.9102160000000000 B
   0.7808430000000000    0.4425060000000000    0.4102160000000000 B
   0.3670930000000000    0.2284190000000000    0.2907510000000000 H
   0.6329070000000000    0.2715810000000000    0.7907510000000000 H
   0.1329070000000000    0.7284190000000000    0.7092490000000000 H
   0.8670930000000000    0.7715810000000000    0.2092490000000000 H
   0.6329070000000000    0.7715810000000000    0.7092490000000000 H
   0.3670930000000000    0.7284190000000000    0.2092490000000000 H
   0.8670930000000000    0.2715810000000000    0.2907510000000000 H
   0.1329070000000000    0.2284190000000000    0.7907510000000000 H
   0.3364510000000000    0.1457960000000000    0.2380570000000000 H
   0.6635490000000001    0.3542040000000000    0.7380570000000000 H
   0.1635490000000000    0.6457960000000000    0.7619430000000000 H
   0.8364509999999999    0.8542040000000000    0.2619430000000000 H
   0.6635490000000001    0.8542040000000000    0.7619430000000000 H
   0.3364510000000000    0.6457960000000000    0.2619430000000000 H
   0.8364509999999999    0.3542040000000000    0.2380570000000000 H
   0.1635490000000000    0.1457960000000000    0.7380570000000000 H
   0.8530770000000000    0.3456500000000000    0.0039420000000000 C
   0.1469230000000000    0.1543500000000000    0.5039420000000000 C
   0.6469230000000000    0.8456500000000000    0.9960580000000000 C
   0.3530770000000000    0.6543500000000000    0.4960580000000000 C
   0.1469230000000000    0.6543500000000000    0.9960580000000000 C
   0.8530770000000000    0.8456500000000000    0.4960580000000000 C
   0.3530770000000000    0.1543500000000000    0.0039420000000000 C
   0.6469230000000000    0.3456500000000000    0.5039420000000000 C
   0.9803900000000000    0.3327520000000000    0.9208130000000000 C
   0.0196100000000000    0.1672480000000000    0.4208130000000000 C
   0.5196100000000000    0.8327520000000000    0.0791870000000000 C
   0.4803900000000000    0.6672480000000000    0.5791870000000000 C
   0.0196100000000000    0.6672480000000000    0.0791870000000000 C
   0.9803900000000000    0.8327520000000000    0.5791870000000000 C
   0.4803900000000000    0.1672480000000000    0.9208130000000000 C
   0.5196100000000000    0.3327520000000000    0.4208130000000000 C
   0.6246310000000000    0.5741210000000000    0.8668790000000000 C
   0.3753690000000000    0.9258790000000000    0.3668790000000000 C
   0.8753690000000000    0.0741210000000000    0.1331210000000000 C
   0.1246310000000000    0.4258790000000000    0.6331210000000000 C
   0.3753690000000000    0.4258790000000000    0.1331210000000000 C
   0.6246310000000000    0.0741210000000000    0.6331210000000000 C
   0.1246310000000000    0.9258790000000000    0.8668790000000000 C
   0.8753690000000000    0.5741210000000000    0.3668790000000000 C
   0.4312650000000000    0.5131030000000000    0.8380620000000000 C
   0.5687350000000000    0.9868970000000000    0.3380620000000000 C
   0.0687350000000000    0.0131030000000000    0.1619380000000000 C
   0.9312650000000000    0.4868970000000000    0.6619380000000000 C
   0.5687350000000000    0.4868970000000000    0.1619380000000000 C
   0.4312650000000000    0.0131030000000000    0.6619380000000000 C
   0.9312650000000000    0.9868970000000000    0.8380620000000000 C
   0.0687350000000000    0.5131030000000000    0.3380620000000000 C
   0.4888560000000000    0.4380440000000000    0.8668090000000001 O
   0.5111440000000000    0.0619560000000000    0.3668090000000000 O
   0.0111440000000000    0.9380440000000000    0.1331910000000000 O
   0.9888560000000000    0.5619560000000000    0.6331909999999999 O
   0.5111440000000000    0.5619560000000000    0.1331910000000000 O
   0.4888560000000000    0.9380440000000000    0.6331909999999999 O
   0.9888560000000000    0.0619560000000000    0.8668090000000001 O
   0.0111440000000000    0.4380440000000000    0.3668090000000000 O
   0.8778760000000000    0.3039750000000000    0.0659970000000000 O
   0.1221240000000000    0.1960250000000000    0.5659970000000000 O
   0.6221240000000000    0.8039750000000000    0.9340030000000000 O
   0.3778760000000000    0.6960250000000000    0.4340030000000000 O
   0.1221240000000000    0.6960250000000000    0.9340030000000000 O
   0.8778760000000000    0.8039750000000000    0.4340030000000000 O
   0.3778760000000000    0.1960250000000000    0.0659970000000000 O
   0.6221240000000000    0.3039750000000000    0.5659970000000000 O
   0.6297670000000000    0.6487140000000000    0.8524230000000000 O
   0.3702330000000000    0.8512860000000000    0.3524230000000000 O
   0.8702330000000000    0.1487140000000000    0.1475770000000000 O
   0.1297670000000000    0.3512860000000000    0.6475770000000000 O
   0.3702330000000000    0.3512860000000000    0.1475770000000000 O
   0.6297670000000000    0.1487140000000000    0.6475770000000000 O
   0.1297670000000000    0.8512860000000000    0.8524230000000000 O
   0.8702330000000000    0.6487140000000000    0.3524230000000000 O
   0.7049250000000000    0.4093080000000000    0.9956690000000000 O
   0.2950750000000000    0.0906920000000000    0.4956690000000000 O
   0.7950750000000000    0.9093080000000000    0.0043310000000000 O
   0.2049250000000000    0.5906920000000000    0.5043310000000000 O
   0.2950750000000000    0.5906920000000000    0.0043310000000000 O
   0.7049250000000000    0.9093080000000000    0.5043310000000000 O
   0.2049250000000000    0.0906920000000000    0.9956690000000000 O
   0.7950750000000000    0.4093080000000000    0.4956690000000000 O
   0.1205650000000000    0.2778460000000000    0.9038960000000000 O
   0.8794350000000000    0.2221540000000000    0.4038960000000000 O
   0.3794350000000000    0.7778460000000000    0.0961040000000000 O
   0.6205650000000000    0.7221540000000000    0.5961040000000000 O
   0.8794350000000000    0.7221540000000000    0.0961040000000000 O
   0.1205650000000000    0.7778460000000000    0.5961040000000000 O
   0.6205650000000000    0.2221540000000000    0.9038960000000000 O
   0.3794350000000000    0.2778460000000000    0.4038960000000000 O
   0.2588370000000000    0.5304790000000000    0.7967870000000000 O
   0.7411630000000000    0.9695210000000000    0.2967870000000000 O
   0.2411630000000000    0.0304790000000000    0.2032130000000000 O
   0.7588370000000000    0.4695210000000000    0.7032130000000000 O
   0.7411630000000000    0.4695210000000000    0.2032130000000000 O
   0.2588370000000000    0.0304790000000000    0.7032130000000000 O
   0.7588370000000000    0.9695210000000000    0.7967870000000000 O
   0.2411630000000000    0.5304790000000000    0.2967870000000000 O
   0.7848720000000000    0.5322230000000000    0.9094780000000000 O
   0.2151280000000000    0.9677770000000000    0.4094780000000000 O
   0.7151280000000000    0.0322230000000000    0.0905220000000000 O
   0.2848720000000000    0.4677770000000000    0.5905220000000000 O
   0.2151280000000000    0.4677770000000000    0.0905220000000000 O
   0.7848720000000000    0.0322230000000000    0.5905220000000000 O
   0.2848720000000000    0.9677770000000000    0.9094780000000000 O
   0.7151280000000000    0.5322230000000000    0.4094780000000000 O
   0.9005090000000000    0.3904200000000000    0.8692790000000000 O
   0.0994910000000000    0.1095800000000000    0.3692790000000000 O
   0.5994910000000000    0.8904200000000000    0.1307210000000000 O
   0.4005090000000000    0.6095800000000000    0.6307210000000000 O
   0.0994910000000000    0.6095800000000000    0.1307210000000000 O
   0.9005090000000000    0.8904200000000000    0.6307210000000000 O
   0.4005090000000000    0.1095800000000000    0.8692790000000000 O
   0.5994910000000000    0.3904200000000000    0.3692790000000000 O
   0.3727150000000000    0.2055360000000000    0.2347490000000000 O
   0.6272850000000000    0.2944640000000000    0.7347490000000000 O
   0.1272850000000000    0.7055360000000001    0.7652510000000000 O
   0.8727150000000000    0.7944639999999999    0.2652510000000000 O
   0.6272850000000000    0.7944639999999999    0.7652510000000000 O
   0.3727150000000000    0.7055360000000001    0.2652510000000000 O
   0.8727150000000000    0.2944640000000000    0.2347490000000000 O
   0.1272850000000000    0.2055360000000000    0.7347490000000000 O
