Li8 Zn8 P16 H8 O56
1.0
   5.0993069999999996    0.0000000000000000    0.0000000000000000
   0.0000000000000000   13.5929210000000005    0.0000000000000000
   0.0000000000000000    0.0000000000000000   16.2786240000000006
Li Zn P H O
8 8 16 8 56
direct
   0.7044350000000000    0.2407810000000000    0.8481190000000000 Li
   0.2955650000000000    0.7592190000000000    0.3481190000000000 Li
   0.2955650000000000    0.7407810000000000    0.8481190000000000 Li
   0.7044350000000000    0.2592190000000000    0.3481190000000000 Li
   0.0834810000000000    0.5527600000000000    0.5864140000000000 Li
   0.9165190000000000    0.4472400000000000    0.0864140000000000 Li
   0.9165190000000000    0.0527600000000000    0.5864140000000000 Li
   0.0834810000000000    0.9472400000000000    0.0864140000000000 Li
   0.0812660000000000    0.5534990000000000    0.9226030000000000 Zn
   0.9187340000000001    0.4465010000000000    0.4226030000000000 Zn
   0.9187340000000001    0.0534990000000000    0.9226030000000000 Zn
   0.0812660000000000    0.9465010000000000    0.4226030000000000 Zn
   0.6878360000000000    0.2405930000000000    0.6658480000000000 Zn
   0.3121640000000000    0.7594070000000001    0.1658480000000000 Zn
   0.3121640000000000    0.7405929999999999    0.6658480000000000 Zn
   0.6878360000000000    0.2594070000000000    0.1658480000000000 Zn
   0.4155980000000000    0.3503690000000000    0.5138640000000000 P
   0.5844020000000000    0.6496310000000000    0.0138640000000000 P
   0.5844020000000000    0.8503690000000000    0.5138640000000000 P
   0.4155980000000000    0.1496310000000000    0.0138640000000000 P
   0.0240190000000000    0.5642070000000000    0.2573660000000000 P
   0.9759810000000000    0.4357930000000000    0.7573660000000000 P
   0.9759810000000000    0.0642070000000000    0.2573660000000000 P
   0.0240190000000000    0.9357930000000000    0.7573660000000000 P
   0.4114040000000000    0.1400320000000000    0.5011200000000000 P
   0.5885960000000000    0.8599680000000000    0.0011200000000000 P
   0.5885960000000000    0.6400320000000000    0.5011200000000000 P
   0.4114040000000000    0.3599680000000000    0.0011200000000000 P
   0.1799630000000000    0.1416960000000000    0.7543700000000000 P
   0.8200370000000000    0.8583040000000000    0.2543700000000000 P
   0.8200370000000000    0.6416960000000000    0.7543700000000000 P
   0.1799630000000000    0.3583040000000000    0.2543700000000000 P
   0.2913980000000000    0.4069260000000000    0.6586750000000000 H
   0.7086020000000000    0.5930740000000000    0.1586750000000000 H
   0.7086020000000000    0.9069260000000000    0.6586750000000000 H
   0.2913980000000000    0.0930740000000000    0.1586750000000000 H
   0.4308480000000000    0.3992580000000000    0.8731660000000000 H
   0.5691520000000000    0.6007420000000000    0.3731660000000000 H
   0.5691520000000000    0.8992580000000000    0.8731660000000000 H
   0.4308480000000000    0.1007420000000000    0.3731660000000000 H
   0.1471430000000000    0.4521380000000000    0.8332060000000000 O
   0.8528570000000000    0.5478620000000000    0.3332060000000000 O
   0.8528570000000000    0.9521380000000000    0.8332060000000000 O
   0.1471430000000000    0.0478620000000000    0.3332060000000000 O
   0.1715960000000000    0.8395620000000000    0.7564500000000000 O
   0.8284040000000000    0.1604380000000000    0.2564500000000000 O
   0.8284040000000000    0.3395620000000000    0.7564500000000000 O
   0.1715960000000000    0.6604380000000000    0.2564500000000000 O
   0.5093270000000000    0.3515480000000000    0.6043620000000000 O
   0.4906730000000000    0.6484520000000000    0.1043620000000000 O
   0.4906730000000000    0.8515480000000000    0.6043620000000000 O
   0.5093270000000000    0.1484520000000000    0.1043620000000000 O
   0.0266260000000000    0.1578670000000000    0.8338090000000000 O
   0.9733740000000000    0.8421330000000000    0.3338090000000000 O
   0.9733740000000000    0.6578670000000000    0.8338090000000000 O
   0.0266260000000000    0.3421330000000000    0.3338090000000000 O
   0.6355420000000001    0.1499450000000000    0.9500950000000000 O
   0.3644580000000000    0.8500550000000000    0.4500950000000000 O
   0.3644580000000000    0.6499450000000000    0.9500950000000000 O
   0.6355420000000001    0.3500550000000000    0.4500950000000000 O
   0.0262910000000000    0.1637130000000000    0.6752629999999999 O
   0.9737090000000000    0.8362870000000000    0.1752630000000000 O
   0.9737090000000000    0.6637130000000000    0.6752629999999999 O
   0.0262910000000000    0.3362870000000000    0.1752630000000000 O
   0.5531430000000001    0.3671260000000000    0.9134460000000000 O
   0.4468570000000000    0.6328740000000000    0.4134460000000000 O
   0.4468570000000000    0.8671260000000000    0.9134460000000000 O
   0.5531430000000001    0.1328740000000000    0.4134460000000000 O
   0.2642950000000000    0.2451870000000000    0.5001830000000000 O
   0.7357050000000001    0.7548130000000000    0.0001830000000000 O
   0.7357050000000001    0.7451870000000000    0.5001830000000000 O
   0.2642950000000000    0.2548130000000000    0.0001830000000000 O
   0.2098830000000000    0.4302800000000000    0.5019520000000000 O
   0.7901170000000000    0.5697200000000000    0.0019520000000000 O
   0.7901170000000000    0.9302800000000000    0.5019520000000000 O
   0.2098830000000000    0.0697200000000000    0.0019520000000000 O
   0.1423390000000000    0.4524460000000000    0.6764400000000000 O
   0.8576610000000000    0.5475540000000000    0.1764400000000000 O
   0.8576610000000000    0.9524460000000000    0.6764400000000000 O
   0.1423390000000000    0.0475540000000000    0.1764400000000000 O
   0.2383520000000000    0.0219670000000000    0.7506389999999999 O
   0.7616480000000000    0.9780330000000000    0.2506390000000000 O
   0.7616480000000000    0.5219670000000000    0.7506389999999999 O
   0.2383520000000000    0.4780330000000000    0.2506390000000000 O
   0.4517030000000000    0.1893560000000000    0.7562520000000000 O
   0.5482970000000000    0.8106440000000000    0.2562520000000000 O
   0.5482970000000000    0.6893560000000000    0.7562520000000000 O
   0.4517030000000000    0.3106440000000000    0.2562520000000000 O
   0.2035350000000000    0.0610950000000000    0.5074310000000000 O
   0.7964650000000000    0.9389050000000000    0.0074310000000000 O
   0.7964650000000000    0.5610950000000000    0.5074310000000000 O
   0.2035350000000000    0.4389050000000000    0.0074310000000000 O
   0.6215870000000000    0.1426800000000000    0.5667180000000001 O
   0.3784130000000000    0.8573200000000000    0.0667180000000000 O
   0.3784130000000000    0.6426800000000000    0.5667180000000001 O
   0.6215870000000000    0.3573200000000000    0.0667180000000000 O
