pymatgen with grid density = 1166 / number of atoms
0
Monkhorst
4 2 2
