Ba1 Li1 Al3 P2 H2 O14
1.0
   5.3128180000000000    3.2278889999999998   -3.7058689999999999
  -5.3130290000000002    3.2282720000000000    3.7052420000000001
   0.3407010000000000    0.0000020000000000    7.9377490000000002
Ba Li Al P H O
1 1 3 2 2 14
direct
   0.9588560000000000    0.0408010000000000    0.9856780000000001 Ba
   0.2760800000000000    0.7233220000000000    0.2075170000000000 Li
   0.9951340000000000    0.0044590000000000    0.4916680000000000 Al
   0.4956840000000000    0.0127960000000000    0.4854690000000000 Al
   0.9867660000000000    0.5038990000000000    0.4854890000000000 Al
   0.2674600000000000    0.7322820000000000    0.8361430000000000 P
   0.7195560000000000    0.2799890000000000    0.1292230000000000 P
   0.4012430000000000    0.5982710000000000    0.5973500000000000 H
   0.6655250000000000    0.3340440000000000    0.6231310000000000 H
   0.3442500000000000    0.6556250000000000    0.0607010000000000 O
   0.6528250000000000    0.3467050000000000    0.9064730000000000 O
   0.1272490000000000    0.8724600000000000    0.7498240000000000 O
   0.8629869999999999    0.1366410000000000    0.2288910000000000 O
   0.1035080000000000    0.5053700000000000    0.7543580000000000 O
   0.4943230000000000    0.8961910000000000    0.7543280000000000 O
   0.4907290000000000    0.1097940000000000    0.2149560000000000 O
   0.8897320000000000    0.5088150000000000    0.2149700000000000 O
   0.3182630000000000    0.6812770000000000    0.4786810000000000 O
   0.6738470000000000    0.3257260000000000    0.5073800000000001 O
   0.7815420000000000    0.9813330000000000    0.5847010000000000 O
   0.0182640000000000    0.2180630000000000    0.5847270000000000 O
   0.9683820000000000    0.7937600000000000    0.3898900000000000 O
   0.2057790000000000    0.0311270000000000    0.3898810000000000 O
