Li1 Mg6 Ga1 O8
1.0
   8.4730067400000006    0.0000000000000000    0.0000000000000000
   0.0000000000000000    4.2457925400000001    0.0000000000000000
   0.0000000000000000    0.0000000000000000    4.2457925400000001
Li Mg Ga O
1 6 1 8
direct
   0.0000000000000000    0.0000000000000000    0.0000000000000000 Li
   0.0000000000000000    0.5000000000000000    0.5000000000000000 Mg
   0.5000000000000000    0.5000000000000000    0.5000000000000000 Mg
   0.2386367400000000    0.0000000000000000    0.5000000000000000 Mg
   0.7613632600000000    0.0000000000000000    0.5000000000000000 Mg
   0.2386367400000000    0.5000000000000000    0.0000000000000000 Mg
   0.7613632600000000    0.5000000000000000    0.0000000000000000 Mg
   0.5000000000000000    0.0000000000000000    0.0000000000000000 Ga
   0.2730984900000000    0.0000000000000000    0.0000000000000000 O
   0.7269015100000000    0.0000000000000000    0.0000000000000000 O
   0.2534592500000000    0.5000000000000000    0.5000000000000000 O
   0.7465407500000000    0.5000000000000000    0.5000000000000000 O
   0.0000000000000000    0.0000000000000000    0.5000000000000000 O
   0.5000000000000000    0.0000000000000000    0.5000000000000000 O
   0.0000000000000000    0.5000000000000000    0.0000000000000000 O
   0.5000000000000000    0.5000000000000000    0.0000000000000000 O
