ALGO = Fast
EDIFF = 0.0032
ENCUT = 520
IBRION = 2
ISIF = 3
ISMEAR = -5
ISPIN = 2
LASPH = True
LMAXMIX = 6
LORBIT = 11
LREAL = Auto
LWAVE = False
MAGMOM = 1*-0.0 1*0.901 31*0.0 1*-0.006 3*0.0 1*-0.006 2*0.0 8*0.001 2*-0.008 7*0.0 1*-0.006 1*-0.0 1*-0.006 4*0.0
NELM = 100
NSW = 99
PREC = Accurate
SIGMA = 0.05
