ALGO = Fast
EDIFF = 0.0008
ENCUT = 520
IBRION = 2
ISIF = 3
ISMEAR = -5
ISPIN = 2
LASPH = True
LMAXMIX = 6
LORBIT = 11
LREAL = Auto
LWAVE = False
MAGMOM = 1*0.002 1*0.044 1*0.08 1*0.029 1*0.016 1*0.005 1*0.01 1*0.039 1*0.0 1*0.035 1*0.033 1*0.034 1*0.014 1*0.006 1*0.008 1*0.007
NELM = 100
NSW = 99
PREC = Accurate
SIGMA = 0.05
