Li1 Tl6 Si2 O7
1.0
  -0.0285150000000000    0.0845070000000000   -5.1502819999999998
  -9.2341610000000003    0.1437440000000000   -0.0700870000000000
  -4.7629770000000002    7.9070570000000000   -0.1655830000000000
Li Tl Si O
1 6 2 7
direct
   0.2030110000000000    0.5120000000000000    0.4021080000000000 Li
   0.7503780000000000    0.7502380000000000    0.3621250000000000 Tl
   0.7099060000000000    0.8675950000000000    0.7122410000000000 Tl
   0.7398950000000000    0.3657970000000000    0.9218880000000000 Tl
   0.1253250000000000    0.1721120000000000    0.6593270000000000 Tl
   0.1917610000000000    0.1283270000000000    0.2905340000000000 Tl
   0.1763190000000000    0.6254630000000000    0.0434760000000000 Tl
   0.2721530000000000    0.6770990000000000    0.6464160000000000 Si
   0.7036060000000000    0.3551520000000000    0.3421350000000000 Si
   0.1991760000000000    0.8665400000000000    0.6034400000000000 O
   0.2189750000000000    0.5217320000000000    0.8406400000000001 O
   0.2655650000000000    0.6437680000000000    0.4932120000000000 O
   0.8197530000000000    0.1567380000000000    0.4540380000000000 O
   0.7849190000000000    0.4393170000000000    0.1372540000000000 O
   0.8422450000000000    0.4654820000000000    0.4136190000000000 O
   0.3830130000000000    0.3503260000000000    0.3679930000000000 O
