pymatgen with grid density = 1232 / number of atoms
0
Gamma
4 4 3
