Li4 H20 S4 N8 O16
1.0
   5.1372910000000003    0.0000000000000000    0.0000000000000000
   0.0000000000000000    9.1619659999999996    0.0000000000000000
   0.0000000000000000    0.0000000000000000   10.0523830000000007
Li H S N O
4 20 4 8 16
direct
   0.7476000000000000    0.5648550000000000    0.3312400000000000 Li
   0.2476000000000000    0.4351450000000000    0.6687600000000000 Li
   0.7476000000000000    0.9351450000000000    0.8312400000000000 Li
   0.2476000000000000    0.0648550000000000    0.1687600000000000 Li
   0.2317790000000000    0.6146850000000000    0.1184190000000000 H
   0.7317790000000000    0.3853150000000000    0.8815809999999999 H
   0.2317790000000000    0.8853150000000000    0.6184190000000001 H
   0.7317790000000000    0.1146850000000000    0.3815810000000000 H
   0.4368430000000000    0.5311470000000000    0.0142870000000000 H
   0.9368430000000000    0.4688530000000000    0.9857130000000000 H
   0.4368430000000000    0.9688530000000000    0.5142870000000000 H
   0.9368430000000000    0.0311470000000000    0.4857130000000000 H
   0.3122370000000000    0.8180610000000000    0.3430570000000000 H
   0.8122370000000000    0.1819390000000000    0.6569430000000001 H
   0.3122370000000000    0.6819390000000000    0.8430569999999999 H
   0.8122370000000000    0.3180610000000000    0.1569430000000000 H
   0.0820240000000000    0.7401070000000000    0.4436100000000000 H
   0.5820240000000000    0.2598930000000000    0.5563900000000001 H
   0.0820240000000000    0.7598930000000000    0.9436099999999999 H
   0.5820240000000000    0.2401070000000000    0.0563900000000000 H
   0.4062010000000000    0.7153450000000000    0.4730860000000000 H
   0.9062010000000000    0.2846550000000000    0.5269140000000000 H
   0.4062010000000000    0.7846550000000000    0.9730860000000000 H
   0.9062010000000000    0.2153450000000000    0.0269140000000000 H
   0.7453840000000000    0.8677340000000000    0.1583500000000000 S
   0.2453840000000000    0.1322660000000000    0.8416500000000000 S
   0.7453840000000000    0.6322660000000000    0.6583500000000000 S
   0.2453840000000000    0.3677340000000000    0.3416500000000000 S
   0.2554380000000000    0.5812360000000000    0.0217210000000000 N
   0.7554380000000001    0.4187640000000000    0.9782790000000000 N
   0.2554380000000000    0.9187640000000000    0.5217210000000000 N
   0.7554380000000001    0.0812360000000000    0.4782790000000000 N
   0.2649220000000000    0.7887920000000000    0.4408000000000000 N
   0.7649220000000000    0.2112080000000000    0.5592000000000000 N
   0.2649220000000000    0.7112080000000000    0.9408000000000000 N
   0.7649220000000000    0.2887920000000000    0.0592000000000000 N
   0.4624570000000000    0.8880860000000000    0.1919820000000000 O
   0.9624570000000000    0.1119140000000000    0.8080180000000000 O
   0.4624570000000000    0.6119140000000000    0.6919820000000000 O
   0.9624570000000000    0.3880860000000000    0.3080180000000000 O
   0.7641270000000000    0.8422520000000000    0.0105330000000000 O
   0.2641270000000000    0.1577480000000000    0.9894670000000000 O
   0.7641270000000000    0.6577480000000000    0.5105330000000000 O
   0.2641270000000000    0.3422520000000000    0.4894670000000000 O
   0.8503210000000000    0.7388310000000000    0.2289130000000000 O
   0.3503210000000000    0.2611690000000000    0.7710870000000000 O
   0.8503210000000000    0.7611690000000000    0.7289130000000000 O
   0.3503210000000000    0.2388310000000000    0.2710870000000000 O
   0.3905680000000000    0.5021070000000000    0.3055620000000000 O
   0.8905680000000000    0.4978930000000000    0.6944380000000000 O
   0.3905680000000000    0.9978930000000000    0.8055620000000000 O
   0.8905680000000000    0.0021070000000000    0.1944380000000000 O
