pymatgen with grid density = 1339 / number of atoms
0
Gamma
6 3 3
