Li14 Bi4 P14 O48
1.0
   5.2468610000000000    0.0000000000000000    0.0000000000000000
   0.0000000000000000   12.1827860000000001    0.0000000000000000
   0.0000000000000000    1.5438660000000000   16.0813589999999991
Li Bi P O
14 4 14 48
direct
   0.2321910000000000    0.4767140000000000    0.0328350000000000 Li
   0.2203300000000000    0.1153370000000000    0.1318740000000000 Li
   0.7678090000000000    0.9767140000000000    0.0328350000000000 Li
   0.7796700000000000    0.6153370000000000    0.1318740000000000 Li
   0.8334450000000000    0.4409720000000000    0.4235450000000000 Li
   0.1665550000000000    0.9409720000000000    0.4235450000000000 Li
   0.2880570000000000    0.2500000000000000    0.5000000000000000 Li
   0.7119430000000000    0.7500000000000000    0.5000000000000000 Li
   0.8334450000000000    0.0590280000000000    0.5764550000000001 Li
   0.1665550000000000    0.5590280000000000    0.5764550000000001 Li
   0.2203300000000000    0.3846630000000000    0.8681260000000000 Li
   0.2321910000000000    0.0232860000000000    0.9671650000000001 Li
   0.7796700000000000    0.8846630000000000    0.8681260000000000 Li
   0.7678090000000000    0.5232860000000000    0.9671650000000001 Li
   0.3315700000000000    0.3084640000000000    0.2767110000000000 Bi
   0.6684300000000000    0.8084640000000000    0.2767110000000000 Bi
   0.3315700000000000    0.1915360000000000    0.7232890000000000 Bi
   0.6684300000000000    0.6915360000000000    0.7232890000000000 Bi
   0.5340090000000000    0.2500000000000000    0.0000000000000000 P
   0.4659910000000000    0.7500000000000000    0.0000000000000000 P
   0.8647130000000000    0.3417630000000000    0.1299570000000000 P
   0.1352870000000000    0.8417630000000000    0.1299570000000000 P
   0.6084950000000000    0.0522480000000000    0.2774680000000000 P
   0.3915050000000000    0.5522480000000000    0.2774680000000000 P
   0.8191110000000000    0.1913860000000000    0.3984340000000000 P
   0.1808890000000000    0.6913859999999999    0.3984340000000000 P
   0.8191110000000000    0.3086140000000000    0.6015660000000000 P
   0.1808890000000000    0.8086140000000001    0.6015660000000000 P
   0.6084950000000000    0.4477520000000000    0.7225320000000000 P
   0.3915050000000000    0.9477520000000000    0.7225320000000000 P
   0.8647130000000000    0.1582370000000000    0.8700430000000000 P
   0.1352870000000000    0.6582370000000000    0.8700430000000000 P
   0.3930990000000000    0.1418790000000000    0.0170360000000000 O
   0.6069010000000000    0.6418790000000000    0.0170360000000000 O
   0.7201950000000000    0.2510300000000000    0.0778550000000000 O
   0.8864990000000000    0.4500650000000000    0.0735270000000000 O
   0.2798050000000000    0.7510300000000000    0.0778550000000000 O
   0.1135010000000000    0.9500650000000000    0.0735270000000000 O
   0.1208400000000000    0.2829310000000000    0.1481150000000000 O
   0.7553180000000000    0.9888670000000001    0.2146860000000000 O
   0.7096590000000000    0.3544290000000000    0.2076840000000000 O
   0.8791600000000001    0.7829310000000000    0.1481150000000000 O
   0.2446820000000000    0.4888670000000000    0.2146860000000000 O
   0.4033930000000000    0.1277430000000000    0.2346860000000000 O
   0.2903410000000000    0.8544290000000000    0.2076840000000000 O
   0.5966070000000000    0.6277430000000001    0.2346860000000000 O
   0.8254060000000000    0.1325270000000000    0.3112560000000000 O
   0.1745940000000000    0.6325270000000000    0.3112560000000000 O
   0.9854619999999999    0.2962720000000000    0.3798740000000000 O
   0.4951990000000000    0.4727620000000000    0.3494510000000000 O
   0.5371220000000000    0.2221650000000000    0.4105800000000000 O
   0.0145380000000000    0.7962720000000000    0.3798740000000000 O
   0.5048010000000001    0.9727620000000000    0.3494510000000000 O
   0.4628780000000000    0.7221649999999999    0.4105800000000000 O
   0.9368790000000000    0.1099580000000000    0.4640780000000000 O
   0.0631210000000000    0.6099580000000000    0.4640780000000000 O
   0.9368790000000000    0.3900420000000000    0.5359220000000000 O
   0.0631210000000000    0.8900420000000000    0.5359220000000000 O
   0.5371220000000000    0.2778350000000000    0.5894200000000001 O
   0.4951990000000000    0.0272380000000000    0.6505480000000000 O
   0.9854619999999999    0.2037280000000000    0.6201260000000000 O
   0.4628780000000000    0.7778350000000001    0.5894200000000001 O
   0.5048010000000001    0.5272380000000000    0.6505480000000000 O
   0.0145380000000000    0.7037280000000000    0.6201260000000000 O
   0.8254060000000000    0.3674730000000000    0.6887440000000000 O
   0.1745940000000000    0.8674730000000000    0.6887440000000000 O
   0.4033930000000000    0.3722570000000000    0.7653140000000000 O
   0.7096590000000000    0.1455710000000000    0.7923160000000000 O
   0.5966070000000000    0.8722569999999999    0.7653140000000000 O
   0.7553180000000000    0.5111329999999999    0.7853140000000000 O
   0.1208400000000000    0.2170690000000000    0.8518850000000000 O
   0.2903410000000000    0.6455710000000000    0.7923160000000000 O
   0.2446820000000000    0.0111330000000000    0.7853140000000000 O
   0.8791600000000001    0.7170690000000000    0.8518850000000000 O
   0.8864990000000000    0.0499350000000000    0.9264730000000000 O
   0.7201950000000000    0.2489700000000000    0.9221450000000000 O
   0.1135010000000000    0.5499350000000000    0.9264730000000000 O
   0.2798050000000000    0.7489700000000000    0.9221450000000000 O
   0.3930990000000000    0.3581210000000000    0.9829639999999999 O
   0.6069010000000000    0.8581210000000000    0.9829639999999999 O
