ALGO = Fast
EDIFF = 0.0036000000000000003
ENCUT = 520
IBRION = 2
ISIF = 3
ISMEAR = -5
ISPIN = 2
LASPH = True
LMAXMIX = 4
LORBIT = 11
LREAL = Auto
LWAVE = False
MAGMOM = 4*0.001 1*0.394 1*0.004 1*0.394 2*0.004 1*0.394 1*0.004 1*0.394 1*0.008 1*0.009 2*0.011 1*0.009 2*0.008 1*0.009 2*0.011 1*0.009 1*0.008 1*0.016 1*0.073 1*0.015 1*0.061 1*0.067 1*0.07 1*0.02 1*0.004 1*0.011 1*0.023 1*0.046 2*0.076 1*0.046 1*0.023 1*0.011 1*0.02 1*0.004 1*0.07 1*0.067 1*0.061 1*0.073 1*0.015 2*0.016 1*0.015 1*0.073 1*0.061 1*0.067 1*0.07 1*0.004 1*0.02 1*0.011 1*0.023 1*0.046 2*0.076 1*0.046 1*0.023 1*0.011 1*0.004 1*0.02 1*0.07 1*0.067 1*0.061 1*0.015 1*0.073 1*0.016
NELM = 100
NSW = 99
PREC = Accurate
SIGMA = 0.05
