Li1 La1 Mg6 O8
1.0
   8.9444176500000001    0.0000000000000000    0.0000000000000000
   0.0000000000000000    4.4612191699999997    0.0000000000000000
   0.0000000000000000    0.0000000000000000    4.4612191699999997
Li La Mg O
1 1 6 8
direct
   0.0000000000000000    0.0000000000000000    0.0000000000000000 Li
   0.0000000000000000    0.5000000000000000    0.5000000000000000 La
   0.5000000000000000    0.0000000000000000    0.0000000000000000 Mg
   0.5000000000000000    0.5000000000000000    0.5000000000000000 Mg
   0.2670659500000000    0.0000000000000000    0.5000000000000000 Mg
   0.7329340500000000    0.0000000000000000    0.5000000000000000 Mg
   0.2670659500000000    0.5000000000000000    0.0000000000000000 Mg
   0.7329340500000000    0.5000000000000000    0.0000000000000000 Mg
   0.2654661300000000    0.0000000000000000    0.0000000000000000 O
   0.7345338700000000    0.0000000000000000    0.0000000000000000 O
   0.2725992000000000    0.5000000000000000    0.5000000000000000 O
   0.7274008000000000    0.5000000000000000    0.5000000000000000 O
   0.0000000000000000    0.0000000000000000    0.5000000000000000 O
   0.5000000000000000    0.0000000000000000    0.5000000000000000 O
   0.0000000000000000    0.5000000000000000    0.0000000000000000 O
   0.5000000000000000    0.5000000000000000    0.0000000000000000 O
