Li24 La12 Sb8 O48
1.0
  -6.5320619999999998    6.5320619999999998    6.5320619999999998
   6.5320619999999998   -6.5320619999999998    6.5320619999999998
   6.5320619999999998    6.5320619999999998   -6.5320619999999998
Li La Sb O
24 12 8 48
direct
   0.0696240000000000    0.1088590000000000    0.8215100000000000 Li
   0.4303760000000000    0.2518860000000000    0.0392350000000000 Li
   0.7126510000000000    0.3911410000000000    0.4607650000000000 Li
   0.1088590000000000    0.8215100000000000    0.0696240000000000 Li
   0.7873490000000000    0.2481140000000000    0.6784900000000000 Li
   0.2518860000000000    0.0392350000000000    0.4303760000000000 Li
   0.3911410000000000    0.4607650000000000    0.7126510000000000 Li
   0.2481140000000000    0.6784900000000000    0.7873490000000000 Li
   0.8215100000000000    0.0696240000000000    0.1088590000000000 Li
   0.4607650000000000    0.7126510000000000    0.3911410000000000 Li
   0.6784900000000000    0.7873490000000000    0.2481140000000000 Li
   0.0392350000000000    0.4303760000000000    0.2518860000000000 Li
   0.1784900000000000    0.9303760000000000    0.8911410000000000 Li
   0.3215100000000000    0.2126510000000000    0.7518860000000001 Li
   0.9607650000000000    0.5696240000000000    0.7481139999999999 Li
   0.9303760000000000    0.8911410000000000    0.1784900000000000 Li
   0.5392350000000000    0.2873490000000000    0.6088590000000000 Li
   0.2126510000000000    0.7518860000000001    0.3215100000000000 Li
   0.5696240000000000    0.7481139999999999    0.9607650000000000 Li
   0.2873490000000000    0.6088590000000000    0.5392350000000000 Li
   0.8911410000000000    0.1784900000000000    0.9303760000000000 Li
   0.7481139999999999    0.9607650000000000    0.5696240000000000 Li
   0.6088590000000000    0.5392350000000000    0.2873490000000000 Li
   0.7518860000000001    0.3215100000000000    0.2126510000000000 Li
   0.8802510000000000    0.6302510000000000    0.2500000000000000 La
   0.6197490000000000    0.8697490000000000    0.7500000000000000 La
   0.6302510000000000    0.2500000000000000    0.8802510000000000 La
   0.8697490000000000    0.7500000000000000    0.6197490000000000 La
   0.2500000000000000    0.8802510000000000    0.6302510000000000 La
   0.7500000000000000    0.6197490000000000    0.8697490000000000 La
   0.3802510000000000    0.1302510000000000    0.2500000000000000 La
   0.1197490000000000    0.3697490000000000    0.7500000000000000 La
   0.1302510000000000    0.2500000000000000    0.3802510000000000 La
   0.3697490000000000    0.7500000000000000    0.1197490000000000 La
   0.2500000000000000    0.3802510000000000    0.1302510000000000 La
   0.7500000000000000    0.1197490000000000    0.3697490000000000 La
   0.5000000000000000    0.5000000000000000    0.5000000000000000 Sb
   0.0000000000000000    0.5000000000000000    0.0000000000000000 Sb
   0.0000000000000000    0.0000000000000000    0.5000000000000000 Sb
   0.5000000000000000    0.0000000000000000    0.0000000000000000 Sb
   0.0000000000000000    0.0000000000000000    0.0000000000000000 Sb
   0.5000000000000000    0.5000000000000000    0.0000000000000000 Sb
   0.0000000000000000    0.5000000000000000    0.5000000000000000 Sb
   0.5000000000000000    0.0000000000000000    0.5000000000000000 Sb
   0.0305760000000000    0.3179200000000000    0.9124700000000000 O
   0.4694240000000000    0.3818940000000000    0.2873430000000000 O
   0.5945510000000001    0.1820800000000000    0.2126570000000000 O
   0.3179200000000000    0.9124700000000000    0.0305760000000000 O
   0.9054489999999999    0.1181060000000000    0.5875300000000000 O
   0.3818940000000000    0.2873430000000000    0.4694240000000000 O
   0.1820800000000000    0.2126570000000000    0.5945510000000001 O
   0.1181060000000000    0.5875300000000000    0.9054489999999999 O
   0.9124700000000000    0.0305760000000000    0.3179200000000000 O
   0.2126570000000000    0.5945510000000001    0.1820800000000000 O
   0.5875300000000000    0.9054489999999999    0.1181060000000000 O
   0.2873430000000000    0.4694240000000000    0.3818940000000000 O
   0.8841599999999999    0.9852710000000000    0.8094080000000000 O
   0.6158400000000001    0.4252480000000000    0.1011110000000000 O
   0.8241370000000000    0.5147290000000000    0.3988890000000000 O
   0.9852710000000000    0.8094080000000000    0.8841599999999999 O
   0.6758630000000000    0.0747520000000000    0.6905920000000000 O
   0.4252480000000000    0.1011110000000000    0.6158400000000001 O
   0.5147290000000000    0.3988890000000000    0.8241370000000000 O
   0.0747520000000000    0.6905920000000000    0.6758630000000000 O
   0.8094080000000000    0.8841599999999999    0.9852710000000000 O
   0.3988890000000000    0.8241370000000000    0.5147290000000000 O
   0.6905920000000000    0.6758630000000000    0.0747520000000000 O
   0.1011110000000000    0.6158400000000001    0.4252480000000000 O
   0.1905920000000000    0.1158400000000000    0.0147290000000000 O
   0.3094080000000000    0.3241370000000000    0.9252480000000000 O
   0.8988890000000000    0.3841600000000000    0.5747520000000000 O
   0.1158400000000000    0.0147290000000000    0.1905920000000000 O
   0.6011110000000000    0.1758630000000000    0.4852710000000000 O
   0.3241370000000000    0.9252480000000000    0.3094080000000000 O
   0.3841600000000000    0.5747520000000000    0.8988890000000000 O
   0.1758630000000000    0.4852710000000000    0.6011110000000000 O
   0.0147290000000000    0.1905920000000000    0.1158400000000000 O
   0.5747520000000000    0.8988890000000000    0.3841600000000000 O
   0.4852710000000000    0.6011110000000000    0.1758630000000000 O
   0.9252480000000000    0.3094080000000000    0.3241370000000000 O
   0.0875300000000000    0.9694240000000000    0.6820800000000000 O
   0.4124700000000000    0.0945510000000000    0.8818940000000000 O
   0.7126570000000000    0.5305760000000000    0.6181060000000000 O
   0.9694240000000000    0.6820800000000000    0.0875300000000000 O
   0.7873430000000000    0.4054490000000000    0.8179200000000000 O
   0.0945510000000000    0.8818940000000000    0.4124700000000000 O
   0.5305760000000000    0.6181060000000000    0.7126570000000000 O
   0.4054490000000000    0.8179200000000000    0.7873430000000000 O
   0.6820800000000000    0.0875300000000000    0.9694240000000000 O
   0.6181060000000000    0.7126570000000000    0.5305760000000000 O
   0.8179200000000000    0.7873430000000000    0.4054490000000000 O
   0.8818940000000000    0.4124700000000000    0.0945510000000000 O
