Li8 Mg4 Si4 O16
1.0
   5.0586599999999997    0.0000000000000000    0.0000000000000000
   0.0000000000000000    6.3652899999999999    0.0000000000000000
   0.0000000000000000    0.0000000000000000   10.8259690000000006
Li Mg Si O
8 4 4 16
direct
   0.1934260000000000    0.0031450000000000    0.3378470000000000 Li
   0.6934260000000000    0.5031450000000000    0.1621530000000000 Li
   0.8065740000000000    0.5031450000000000    0.6621530000000000 Li
   0.3065740000000000    0.0031450000000000    0.8378470000000000 Li
   0.2932440000000000    0.2566750000000000    0.0746680000000000 Li
   0.7932439999999999    0.7566750000000000    0.4253320000000000 Li
   0.7067560000000001    0.7566750000000000    0.9253320000000000 Li
   0.2067560000000000    0.2566750000000000    0.5746680000000000 Li
   0.8091810000000000    0.9961550000000000    0.6658820000000000 Mg
   0.3091810000000000    0.4961550000000000    0.8341180000000000 Mg
   0.1908190000000000    0.4961550000000000    0.3341180000000000 Mg
   0.6908190000000000    0.9961550000000000    0.1658820000000000 Mg
   0.1879210000000000    0.7522790000000000    0.0863420000000000 Si
   0.6879210000000000    0.2522790000000000    0.4136580000000000 Si
   0.8120790000000000    0.2522790000000000    0.9136580000000000 Si
   0.3120790000000000    0.7522790000000000    0.5863420000000000 Si
   0.2100060000000000    0.7477130000000000    0.4425100000000000 O
   0.7100060000000000    0.2477130000000000    0.0574900000000000 O
   0.7899940000000000    0.2477130000000000    0.5574900000000000 O
   0.2899940000000000    0.7477130000000000    0.9425100000000000 O
   0.2941300000000000    0.5401899999999999    0.1607520000000000 O
   0.7941300000000000    0.0401900000000000    0.3392480000000000 O
   0.7023310000000000    0.4596170000000000    0.8401980000000000 O
   0.2023310000000000    0.9596170000000001    0.6598020000000000 O
   0.8607250000000000    0.7548850000000000    0.0912650000000000 O
   0.3607250000000000    0.2548850000000000    0.4087350000000000 O
   0.1392750000000000    0.2548850000000000    0.9087350000000000 O
   0.6392750000000000    0.7548850000000000    0.5912650000000000 O
   0.2976690000000000    0.9596170000000001    0.1598020000000000 O
   0.7976690000000000    0.4596170000000000    0.3401980000000000 O
   0.7058700000000000    0.0401900000000000    0.8392480000000000 O
   0.2058700000000000    0.5401899999999999    0.6607520000000000 O
