pymatgen with grid density = 1373 / number of atoms
0
Gamma
7 2 1
