Li4 Lu10 B6 O26
1.0
   3.4982600000000001    0.0000000000000000    0.0000000000000000
   0.0000000000000000   10.0726119999999995    0.0000000000000000
   0.0000000000000000    4.1896180000000003   15.0949039999999997
Li Lu B O
4 10 6 26
direct
   0.2500000000000000    0.3865140000000000    0.0531660000000000 Li
   0.7500000000000000    0.6134860000000000    0.9468340000000000 Li
   0.2500000000000000    0.7534820000000000    0.7520829999999999 Li
   0.7500000000000000    0.2465180000000000    0.2479170000000000 Li
   0.2500000000000000    0.8558800000000000    0.0007270000000000 Lu
   0.7500000000000000    0.1441200000000000    0.9992730000000000 Lu
   0.2500000000000000    0.3614280000000000    0.5632770000000000 Lu
   0.7500000000000000    0.6385720000000000    0.4367230000000000 Lu
   0.2500000000000000    0.4815210000000000    0.3024210000000000 Lu
   0.7500000000000000    0.5184790000000000    0.6975789999999999 Lu
   0.2500000000000000    0.1864340000000000    0.7942600000000000 Lu
   0.7500000000000000    0.8135660000000000    0.2057400000000000 Lu
   0.2500000000000000    0.9632400000000000    0.3724850000000000 Lu
   0.7500000000000000    0.0367600000000000    0.6275150000000000 Lu
   0.2500000000000000    0.7863590000000000    0.5761970000000000 B
   0.7500000000000000    0.2136410000000000    0.4238030000000000 B
   0.2500000000000000    0.0930370000000000    0.1827350000000000 B
   0.7500000000000000    0.9069630000000000    0.8172650000000000 B
   0.2500000000000000    0.5900320000000000    0.1112610000000000 B
   0.7500000000000000    0.4099680000000000    0.8887389999999999 B
   0.2500000000000000    0.4582840000000000    0.1642500000000000 O
   0.7500000000000000    0.5417160000000000    0.8357500000000000 O
   0.2500000000000000    0.1517160000000000    0.2525220000000000 O
   0.7500000000000000    0.8482840000000000    0.7474780000000000 O
   0.2500000000000000    0.5137389999999999    0.4321290000000000 O
   0.7500000000000000    0.4862610000000000    0.5678710000000000 O
   0.2500000000000000    0.7051730000000000    0.1481170000000000 O
   0.7500000000000000    0.2948270000000000    0.8518829999999999 O
   0.2500000000000000    0.7637070000000000    0.4923570000000000 O
   0.7500000000000000    0.2362930000000000    0.5076430000000000 O
   0.2500000000000000    0.6220770000000000    0.0196460000000000 O
   0.7500000000000000    0.3779230000000000    0.9803539999999999 O
   0.2500000000000000    0.1484880000000000    0.6543650000000000 O
   0.7500000000000000    0.8515120000000000    0.3456350000000000 O
   0.2500000000000000    0.0813010000000000    0.9380330000000000 O
   0.7500000000000000    0.9186990000000000    0.0619670000000000 O
   0.2500000000000000    0.1691570000000000    0.0955300000000000 O
   0.7500000000000000    0.8308430000000000    0.9044700000000000 O
   0.2500000000000000    0.9487240000000000    0.2067390000000000 O
   0.7500000000000000    0.0512760000000000    0.7932610000000000 O
   0.2500000000000000    0.3889850000000000    0.7042710000000000 O
   0.7500000000000000    0.6110150000000000    0.2957290000000000 O
   0.2500000000000000    0.9200900000000000    0.5841030000000000 O
   0.7500000000000000    0.0799100000000000    0.4158970000000000 O
   0.2500000000000000    0.6757230000000000    0.6524440000000000 O
   0.7500000000000000    0.3242770000000000    0.3475560000000000 O
