Li4 Mg4 As4 O16
1.0
   4.9465729999999999    0.0000000000000000    0.0000000000000000
   0.0000000000000000    6.0507679999999997    0.0000000000000000
   0.0000000000000000    0.0000000000000000   10.5792780000000004
Li Mg As O
4 4 4 16
direct
   0.0000000000000000    0.0000000000000000    0.0000000000000000 Li
   0.5000000000000000    0.0000000000000000    0.5000000000000000 Li
   0.0000000000000000    0.5000000000000000    0.0000000000000000 Li
   0.5000000000000000    0.5000000000000000    0.5000000000000000 Li
   0.0061240000000000    0.7500000000000000    0.2747770000000000 Mg
   0.9938760000000000    0.2500000000000000    0.7252230000000000 Mg
   0.4938760000000000    0.7500000000000000    0.7747770000000000 Mg
   0.5061240000000000    0.2500000000000000    0.2252230000000000 Mg
   0.0651100000000000    0.2500000000000000    0.4057100000000000 As
   0.4348900000000000    0.2500000000000000    0.9057100000000000 As
   0.9348900000000000    0.7500000000000000    0.5942900000000000 As
   0.5651100000000000    0.7500000000000000    0.0942900000000000 As
   0.7782900000000000    0.5309670000000000    0.6710870000000000 O
   0.2217100000000000    0.4690330000000000    0.3289130000000000 O
   0.7217100000000000    0.5309670000000000    0.1710870000000000 O
   0.7782900000000000    0.9690330000000000    0.6710870000000000 O
   0.2782900000000000    0.0309670000000000    0.8289130000000000 O
   0.7801060000000000    0.2500000000000000    0.9018820000000000 O
   0.2782900000000000    0.4690330000000000    0.8289130000000000 O
   0.2217100000000000    0.0309670000000000    0.3289130000000000 O
   0.2198940000000000    0.7500000000000000    0.0981180000000000 O
   0.7198940000000000    0.2500000000000000    0.4018820000000000 O
   0.7964740000000000    0.7500000000000000    0.4449680000000000 O
   0.2801060000000000    0.7500000000000000    0.5981180000000000 O
   0.7035260000000000    0.7500000000000000    0.9449680000000000 O
   0.2964740000000000    0.2500000000000000    0.0550320000000000 O
   0.2035260000000000    0.2500000000000000    0.5550320000000000 O
   0.7217100000000000    0.9690330000000000    0.1710870000000000 O
