pymatgen with grid density = 1453 / number of atoms
0
Gamma
1 1 3
