Li4 Sm24 B12 O56
1.0
  15.9113330000000008    0.0000000000000000    0.0000000000000000
   0.0000000000000000    8.6130040000000001    0.0000000000000000
   0.0000000000000000    8.2396829999999994    9.1091379999999997
Li Sm B O
4 24 12 56
direct
   0.6036980000000000    0.8804070000000001    0.4399320000000000 Li
   0.3963020000000000    0.1195930000000000    0.5600680000000000 Li
   0.1036980000000000    0.1195930000000000    0.0600680000000000 Li
   0.8963020000000000    0.8804070000000001    0.9399320000000000 Li
   0.8220140000000000    0.5521460000000000    0.3062400000000000 Sm
   0.1779860000000000    0.4478540000000000    0.6937600000000000 Sm
   0.3220140000000000    0.4478540000000000    0.1937600000000000 Sm
   0.6779860000000000    0.5521460000000000    0.8062400000000000 Sm
   0.3252020000000000    0.9857750000000000    0.0543350000000000 Sm
   0.6747980000000000    0.0142250000000000    0.9456650000000000 Sm
   0.8252020000000000    0.0142250000000000    0.4456650000000000 Sm
   0.1747980000000000    0.9857750000000000    0.5543350000000000 Sm
   0.3563350000000000    0.8482880000000000    0.4240730000000000 Sm
   0.6436650000000000    0.1517120000000000    0.5759270000000000 Sm
   0.8563350000000000    0.1517120000000000    0.0759270000000000 Sm
   0.1436650000000000    0.8482880000000000    0.9240730000000000 Sm
   0.5137730000000000    0.6648520000000000    0.2832130000000000 Sm
   0.4862270000000000    0.3351480000000000    0.7167870000000000 Sm
   0.0137730000000000    0.3351480000000000    0.2167870000000000 Sm
   0.9862270000000000    0.6648520000000000    0.7832130000000000 Sm
   0.5042950000000000    0.2375010000000000    0.0621460000000000 Sm
   0.4957050000000000    0.7624990000000000    0.9378540000000000 Sm
   0.0042950000000000    0.7624990000000000    0.4378540000000000 Sm
   0.9957050000000000    0.2375010000000000    0.5621460000000000 Sm
   0.6657430000000000    0.4114030000000000    0.1665780000000000 Sm
   0.3342570000000000    0.5885970000000000    0.8334220000000000 Sm
   0.1657430000000000    0.5885970000000000    0.3334220000000000 Sm
   0.8342570000000000    0.4114030000000000    0.6665780000000000 Sm
   0.8269030000000001    0.5442150000000000    0.0269300000000000 B
   0.1730970000000000    0.4557850000000000    0.9730700000000000 B
   0.3269030000000000    0.4557850000000000    0.4730700000000000 B
   0.6730969999999999    0.5442150000000000    0.5269300000000000 B
   0.9992810000000000    0.7919929999999999    0.1444830000000000 B
   0.0007190000000000    0.2080070000000000    0.8555170000000000 B
   0.4992810000000000    0.2080070000000000    0.3555170000000000 B
   0.5007190000000000    0.7919929999999999    0.6444830000000000 B
   0.6930670000000000    0.9583739999999999    0.2212830000000000 B
   0.3069330000000000    0.0416260000000000    0.7787170000000000 B
   0.1930670000000000    0.0416260000000000    0.2787170000000000 B
   0.8069330000000000    0.9583739999999999    0.7212830000000000 B
   0.7504830000000000    0.8841450000000000    0.1782750000000000 O
   0.2495170000000000    0.1158550000000000    0.8217250000000000 O
   0.2504830000000000    0.1158550000000000    0.3217250000000000 O
   0.7495170000000000    0.8841450000000000    0.6782750000000000 O
   0.4673620000000000    0.6976050000000000    0.5952720000000000 O
   0.5326379999999999    0.3023950000000000    0.4047280000000000 O
   0.9673620000000001    0.3023950000000000    0.9047280000000000 O
   0.0326380000000000    0.6976050000000000    0.0952720000000000 O
   0.4209630000000000    0.9342800000000000    0.2204710000000000 O
   0.5790370000000000    0.0657200000000000    0.7795290000000000 O
   0.9209630000000000    0.0657200000000000    0.2795290000000000 O
   0.0790370000000000    0.9342800000000000    0.7204710000000000 O
   0.9157660000000000    0.8523390000000000    0.1177810000000000 O
   0.0842340000000000    0.1476610000000000    0.8822190000000000 O
   0.4157660000000000    0.1476610000000000    0.3822190000000000 O
   0.5842340000000000    0.8523390000000000    0.6177810000000000 O
   0.9109190000000000    0.5248290000000000    0.0098150000000000 O
   0.0890810000000000    0.4751710000000000    0.9901850000000000 O
   0.4109190000000000    0.4751710000000000    0.4901850000000000 O
   0.5890810000000000    0.5248290000000000    0.5098150000000000 O
   0.7963970000000000    0.6407670000000000    0.0744240000000000 O
   0.2036030000000000    0.3592330000000000    0.9255760000000000 O
   0.2963970000000000    0.3592330000000000    0.4255760000000000 O
   0.7036030000000000    0.6407670000000000    0.5744240000000000 O
   0.4495870000000000    0.8237330000000000    0.7186810000000000 O
   0.5504130000000000    0.1762670000000000    0.2813190000000000 O
   0.9495870000000000    0.1762670000000000    0.7813190000000000 O
   0.0504130000000000    0.8237330000000000    0.2186810000000000 O
   0.5981540000000000    0.7021690000000000    0.1054590000000000 O
   0.4018460000000000    0.2978310000000000    0.8945410000000000 O
   0.0981540000000000    0.2978310000000000    0.3945410000000000 O
   0.9018460000000000    0.7021690000000000    0.6054590000000000 O
   0.9106500000000000    0.5270800000000000    0.4640960000000000 O
   0.0893500000000000    0.4729200000000000    0.5359040000000000 O
   0.4106500000000000    0.4729200000000000    0.0359040000000000 O
   0.5893500000000000    0.5270800000000000    0.9640960000000000 O
   0.4142930000000000    0.7142360000000000    0.1235390000000000 O
   0.5857070000000000    0.2857640000000000    0.8764610000000000 O
   0.9142930000000000    0.2857640000000000    0.3764610000000000 O
   0.0857070000000000    0.7142360000000000    0.6235390000000000 O
   0.2321550000000000    0.7237540000000000    0.1214020000000000 O
   0.7678450000000000    0.2762460000000000    0.8785980000000000 O
   0.7321550000000000    0.2762460000000000    0.3785980000000000 O
   0.2678450000000000    0.7237540000000000    0.6214020000000000 O
   0.2246010000000000    0.9474160000000000    0.2297200000000000 O
   0.7753989999999999    0.0525840000000000    0.7702800000000000 O
   0.7246010000000001    0.0525840000000000    0.2702800000000000 O
   0.2753990000000000    0.9474160000000000    0.7297200000000000 O
   0.6084240000000000    0.9480350000000000    0.2012050000000000 O
   0.3915760000000000    0.0519650000000000    0.7987950000000000 O
   0.1084240000000000    0.0519650000000000    0.2987950000000000 O
   0.8915760000000000    0.9480350000000000    0.7012050000000000 O
   0.7685910000000000    0.4485000000000000    0.0039000000000000 O
   0.2314090000000000    0.5515000000000000    0.9961000000000000 O
   0.2685910000000000    0.5515000000000000    0.4961000000000000 O
   0.7314090000000000    0.4485000000000000    0.5039000000000000 O
