Sr1 Li1 Al2 B2 O7
1.0
   4.5333819999999996   -0.1193290000000000    7.3643900000000002
   1.9767110000000001    4.0594640000000002    7.3485490000000002
  -0.1308840000000000   -0.1121330000000000    8.9231920000000002
Sr Li Al B O
1 1 2 2 7
direct
   0.0097270000000000    0.0012490000000000    0.0001330000000000 Sr
   0.7745410000000000    0.8360540000000000    0.9799210000000000 Li
   0.4440830000000000    0.4630990000000000    0.3882920000000000 Al
   0.5567060000000000    0.5386310000000000    0.5969220000000000 Al
   0.2613460000000000    0.2286460000000000    0.2922360000000000 B
   0.7419940000000000    0.7569129999999999    0.7124230000000000 B
   0.0427390000000000    0.6906440000000000    0.4648940000000000 O
   0.4928610000000000    0.0623580000000000    0.6532430000000000 O
   0.6683130000000000    0.5061110000000000    0.0138960000000000 O
   0.5487800000000000    0.5795430000000000    0.3748350000000000 O
   0.3137840000000000    0.9352920000000000    0.5518990000000000 O
   0.5216460000000001    0.2502130000000000    0.9901510000000000 O
   0.9672300000000000    0.4949950000000000    0.3327170000000000 O
