Sr8 Li4 B24 O46
1.0
   8.6252340000000007    0.0000000000000000    0.0000000000000000
   0.0000000000000000    6.5324840000000002    0.0000000000000000
   0.0000000000000000    3.2548420000000000   15.1574220000000004
Sr Li B O
8 4 24 46
direct
   0.8239860000000000    0.9697200000000000    0.2273560000000000 Sr
   0.3239860000000000    0.0302800000000000    0.2726440000000000 Sr
   0.1760140000000000    0.0302800000000000    0.7726440000000000 Sr
   0.6760140000000000    0.9697200000000000    0.7273560000000000 Sr
   0.9842860000000000    0.3906520000000000    0.3861170000000000 Sr
   0.4842860000000000    0.6093480000000000    0.1138830000000000 Sr
   0.0157140000000000    0.6093480000000000    0.6138830000000000 Sr
   0.5157140000000000    0.3906520000000000    0.8861170000000000 Sr
   0.8044800000000000    0.3416570000000000    0.0245890000000000 Li
   0.3044800000000000    0.6583430000000000    0.4754110000000000 Li
   0.1955200000000000    0.6583430000000000    0.9754110000000000 Li
   0.6955200000000000    0.3416570000000000    0.5245890000000000 Li
   0.6544850000000000    0.0641450000000000    0.4220070000000000 B
   0.1544850000000000    0.9358550000000000    0.0779930000000000 B
   0.3455150000000000    0.9358550000000000    0.5779930000000000 B
   0.8455150000000000    0.0641450000000000    0.9220070000000000 B
   0.8305590000000000    0.7521500000000000    0.0378050000000000 B
   0.3305590000000000    0.2478500000000000    0.4621950000000000 B
   0.1694410000000000    0.2478500000000000    0.9621950000000000 B
   0.6694410000000000    0.7521500000000000    0.5378050000000000 B
   0.8802700000000000    0.4770980000000000    0.1830860000000000 B
   0.3802700000000000    0.5229020000000000    0.3169140000000000 B
   0.1197300000000000    0.5229020000000000    0.8169140000000000 B
   0.6197300000000000    0.4770980000000000    0.6830860000000000 B
   0.6021640000000000    0.7147460000000000    0.3818700000000000 B
   0.1021640000000000    0.2852540000000000    0.1181300000000000 B
   0.3978360000000000    0.2852540000000000    0.6181300000000000 B
   0.8978360000000000    0.7147460000000000    0.8818700000000000 B
   0.6628630000000000    0.4254960000000000    0.3071420000000000 B
   0.1628630000000000    0.5745040000000000    0.1928580000000000 B
   0.3371370000000000    0.5745040000000000    0.6928580000000000 B
   0.8371370000000000    0.4254960000000000    0.8071420000000000 B
   0.0390000000000000    0.9031320000000000    0.4272350000000000 B
   0.5390000000000000    0.0968680000000000    0.0727650000000000 B
   0.9610000000000000    0.0968680000000000    0.5727650000000000 B
   0.4610000000000000    0.9031320000000000    0.9272350000000000 B
   0.9381740000000000    0.3286810000000000    0.1309620000000000 O
   0.4381740000000000    0.6713190000000000    0.3690380000000000 O
   0.0618260000000000    0.6713190000000000    0.8690380000000000 O
   0.5618260000000000    0.3286810000000000    0.6309620000000000 O
   0.5290080000000000    0.9769510000000000    0.1559640000000000 O
   0.0290080000000000    0.0230490000000000    0.3440360000000000 O
   0.4709920000000000    0.0230490000000000    0.8440360000000000 O
   0.9709920000000000    0.9769510000000000    0.6559640000000000 O
   0.6779690000000000    0.2743980000000000    0.4006790000000000 O
   0.1779690000000000    0.7256020000000000    0.0993210000000000 O
   0.3220310000000000    0.7256020000000000    0.5993210000000000 O
   0.8220310000000000    0.2743980000000000    0.9006790000000000 O
   0.8352930000000000    0.9711980000000000    0.0126250000000000 O
   0.3352930000000000    0.0288020000000000    0.4873750000000000 O
   0.1647070000000000    0.0288020000000000    0.9873750000000000 O
   0.6647070000000000    0.9711980000000000    0.5126250000000000 O
   0.7070920000000001    0.6296630000000000    0.3251570000000000 O
   0.2070920000000000    0.3703370000000000    0.1748430000000000 O
   0.2929080000000000    0.3703370000000000    0.6748430000000000 O
   0.7929079999999999    0.6296630000000000    0.8251570000000000 O
   0.0834420000000000    0.6974240000000000    0.4489110000000000 O
   0.5834420000000000    0.3025760000000000    0.0510890000000000 O
   0.9165580000000000    0.3025760000000000    0.5510890000000001 O
   0.4165580000000000    0.6974240000000000    0.9489109999999999 O
   0.8533650000000000    0.6349150000000000    0.9762800000000000 O
   0.3533650000000000    0.3650850000000000    0.5237200000000000 O
   0.1466350000000000    0.3650850000000000    0.0237200000000000 O
   0.6466350000000000    0.6349150000000000    0.4762800000000000 O
   0.7739650000000000    0.3572290000000000    0.2487900000000000 O
   0.2739650000000000    0.6427710000000000    0.2512100000000000 O
   0.2260350000000000    0.6427710000000000    0.7512100000000000 O
   0.7260350000000000    0.3572290000000000    0.7487900000000000 O
   0.0042270000000000    0.5771660000000000    0.2245390000000000 O
   0.5042270000000000    0.4228340000000000    0.2754610000000000 O
   0.9957730000000000    0.4228340000000000    0.7754610000000000 O
   0.4957730000000000    0.5771660000000000    0.7245390000000000 O
   0.0000000000000000    0.0000000000000000    0.5000000000000000 O
   0.5000000000000000    0.0000000000000000    0.0000000000000000 O
   0.7925690000000000    0.6635920000000000    0.1236560000000000 O
   0.2925690000000000    0.3364080000000000    0.3763440000000000 O
   0.2074310000000000    0.3364080000000000    0.8763440000000000 O
   0.7074310000000000    0.6635920000000000    0.6236560000000000 O
   0.6229080000000000    0.9489630000000000    0.3599860000000000 O
   0.1229080000000000    0.0510370000000000    0.1400140000000000 O
   0.3770920000000000    0.0510370000000000    0.6400140000000000 O
   0.8770920000000000    0.9489630000000000    0.8599860000000000 O
