ALGO = Fast
EDIFF = 0.0006500000000000001
ENCUT = 520
IBRION = 2
ISIF = 3
ISMEAR = -5
ISPIN = 2
LASPH = True
LMAXMIX = 4
LORBIT = 11
LREAL = Auto
LWAVE = False
MAGMOM = 3*0.002 2*0.0 2*0.151 2*0.091 2*0.06 2*0.058
NELM = 100
NSW = 99
PREC = Accurate
SIGMA = 0.05
