ALGO = Fast
EDIFF = 0.0016
ENCUT = 520
IBRION = 2
ISIF = 3
ISMEAR = -5
ISPIN = 2
LASPH = True
LORBIT = 11
LREAL = Auto
LWAVE = False
MAGMOM = 1*0.0 2*0.001 12*-0.0 1*0.076 1*0.004 1*0.045 1*0.004 1*0.045 4*-0.0 1*0.001 2*0.004 1*-0.017 2*0.004 2*0.045
NELM = 100
NSW = 99
PREC = Accurate
SIGMA = 0.05
