ALGO = Fast
EDIFF = 0.00045000000000000004
ENCUT = 520
IBRION = 2
ISIF = 3
ISMEAR = -5
ISPIN = 2
LASPH = True
LMAXMIX = 4
LORBIT = 11
LREAL = Auto
LWAVE = False
MAGMOM = 1*0.001 1*0.012 1*0.01 1*0.254 1*0.016 2*0.022 2*0.071
NELM = 100
NSW = 99
PREC = Accurate
SIGMA = 0.05
