pymatgen with grid density = 731 / number of atoms
0
Gamma
3 4 4
