Li4 U4 As4 O24
1.0
   5.2364360000000003    0.0000000000000000    0.0000000000000000
   2.4061089999999998   10.0057890000000000    0.0000000000000000
   2.5640740000000002    4.2398699999999998   10.0579040000000006
Li U As O
4 4 4 24
direct
   0.5457770000000000    0.3767800000000000    0.7687690000000000 Li
   0.4542230000000000    0.6232200000000000    0.2312310000000000 Li
   0.4582510000000000    0.0925090000000000    0.2946910000000000 Li
   0.5417490000000000    0.9074910000000000    0.7053090000000000 Li
   0.4987430000000000    0.2803850000000000    0.4793080000000000 U
   0.9819820000000000    0.7979800000000000    0.9822740000000000 U
   0.5012570000000000    0.7196150000000000    0.5206920000000000 U
   0.0180180000000000    0.2020200000000000    0.0177260000000000 U
   0.9338720000000000    0.1082850000000000    0.7284700000000000 As
   0.9385990000000000    0.5820270000000000    0.7834640000000000 As
   0.0614010000000000    0.4179730000000000    0.2165360000000000 As
   0.0661280000000000    0.8917150000000000    0.2715300000000000 As
   0.2838500000000000    0.8784490000000000    0.5386750000000000 O
   0.7323860000000000    0.7120790000000000    0.6751020000000000 O
   0.6916590000000000    0.1799650000000000    0.1188360000000000 O
   0.2676140000000000    0.2879210000000000    0.3248980000000000 O
   0.7256190000000000    0.5634410000000000    0.5045940000000000 O
   0.9357910000000000    0.0960000000000000    0.8864610000000001 O
   0.2743810000000000    0.4365590000000000    0.4954060000000000 O
   0.1755920000000000    0.0518790000000000    0.2302290000000000 O
   0.3415220000000000    0.2272640000000000    0.9135300000000000 O
   0.7385010000000000    0.4392970000000000    0.2956340000000000 O
   0.8244080000000000    0.9481210000000000    0.7697710000000000 O
   0.7498120000000000    0.8870610000000000    0.3590850000000000 O
   0.0759900000000000    0.3575910000000000    0.0941130000000000 O
   0.9240100000000000    0.6424090000000000    0.9058870000000000 O
   0.2852410000000000    0.7422480000000000    0.3507050000000000 O
   0.0642090000000000    0.9040000000000000    0.1135390000000000 O
   0.8277440000000000    0.4168820000000000    0.8493920000000000 O
   0.7147590000000000    0.2577520000000000    0.6492950000000000 O
   0.6584780000000000    0.7727360000000000    0.0864700000000000 O
   0.2614990000000000    0.5607030000000000    0.7043660000000000 O
   0.2501880000000000    0.1129390000000000    0.6409150000000000 O
   0.1722560000000000    0.5831180000000000    0.1506080000000000 O
   0.3083410000000000    0.8200350000000000    0.8811639999999999 O
   0.7161500000000000    0.1215510000000000    0.4613250000000000 O
