pymatgen with grid density = 1443 / number of atoms
0
Gamma
7 2 2
