Li8 Sn2 B4 O12
1.0
   3.5552649999999999    0.0000000000000000    0.0000000000000000
   0.0000000000000000    8.5019209999999994    0.0000000000000000
   0.0000000000000000    0.0000000000000000    9.4625740000000000
Li Sn B O
8 2 4 12
direct
   0.5000000000000000    0.1730500000000000    0.0449760000000000 Li
   0.0000000000000000    0.0156430000000000    0.2010800000000000 Li
   0.5000000000000000    0.5156430000000000    0.2989200000000000 Li
   0.0000000000000000    0.6730500000000000    0.4550240000000000 Li
   0.0000000000000000    0.3269500000000000    0.5449760000000000 Li
   0.5000000000000000    0.4843570000000000    0.7010800000000000 Li
   0.0000000000000000    0.9843570000000000    0.7989200000000000 Li
   0.5000000000000000    0.8269500000000000    0.9550240000000000 Li
   0.0000000000000000    0.5000000000000000    0.0000000000000000 Sn
   0.5000000000000000    0.0000000000000000    0.5000000000000000 Sn
   0.5000000000000000    0.7732290000000001    0.2121750000000000 B
   0.0000000000000000    0.2732290000000000    0.2878250000000000 B
   0.0000000000000000    0.7267709999999999    0.7121750000000000 B
   0.5000000000000000    0.2267710000000000    0.7878250000000000 B
   0.5000000000000000    0.6430800000000000    0.1205200000000000 O
   0.0000000000000000    0.2398140000000000    0.1427950000000000 O
   0.5000000000000000    0.9228750000000000    0.1549950000000000 O
   0.0000000000000000    0.4228750000000000    0.3450050000000000 O
   0.5000000000000000    0.7398140000000000    0.3572050000000000 O
   0.0000000000000000    0.1430800000000000    0.3794800000000000 O
   0.0000000000000000    0.8569200000000000    0.6205200000000000 O
   0.5000000000000000    0.2601860000000000    0.6427950000000000 O
   0.0000000000000000    0.5771250000000000    0.6549950000000000 O
   0.5000000000000000    0.0771250000000000    0.8450050000000000 O
   0.0000000000000000    0.7601860000000000    0.8572050000000000 O
   0.5000000000000000    0.3569200000000000    0.8794800000000000 O
