ALGO = Fast
EDIFF = 0.0019500000000000001
ENCUT = 520
IBRION = 2
ISIF = 3
ISMEAR = -5
ISPIN = 2
LASPH = True
LMAXMIX = 4
LORBIT = 11
LREAL = Auto
LWAVE = False
MAGMOM = 6*0.0 1*0.008 1*0.047 1*0.006 3*0.003 1*0.185 1*0.008 1*0.006 1*0.018 1*0.021 1*0.011 1*0.017 1*0.014 1*0.003 1*0.009 1*0.008 1*0.009 1*0.007 2*0.001 2*0.003 1*0.043 1*0.03 1*0.017 1*0.021 1*0.097 1*0.096 1*0.003 1*0.061 1*0.009 1*0.051
NELM = 100
NSW = 99
PREC = Accurate
SIGMA = 0.05
