Li4 Sn2 H12 O12
1.0
   5.2309960000000002    0.0000000000000000    0.0000000000000000
   0.0000000000000000    5.6331550000000004    0.0000000000000000
  -4.1199349999999999    0.0000000000000000    9.2090069999999997
Li Sn H O
4 2 12 12
direct
   0.0636210000000000    0.7304730000000000    0.6581360000000001 Li
   0.0636210000000000    0.7695270000000000    0.1581360000000000 Li
   0.9363790000000000    0.2695270000000000    0.3418640000000000 Li
   0.9363790000000000    0.2304730000000000    0.8418639999999999 Li
   0.5000000000000000    0.0000000000000000    0.0000000000000000 Sn
   0.5000000000000000    0.5000000000000000    0.5000000000000000 Sn
   0.0033000000000000    0.8224730000000000    0.8794280000000000 H
   0.0033000000000000    0.6775270000000000    0.3794280000000000 H
   0.9967000000000000    0.1775270000000000    0.1205720000000000 H
   0.9967000000000000    0.3224730000000000    0.6205720000000000 H
   0.3330970000000000    0.4207240000000000    0.0626050000000000 H
   0.3330970000000000    0.0792760000000000    0.5626050000000000 H
   0.6669030000000000    0.5792760000000000    0.9373950000000000 H
   0.6669030000000000    0.9207240000000000    0.4373950000000000 H
   0.5584440000000001    0.7529840000000000    0.2309140000000000 H
   0.5584440000000001    0.7470160000000000    0.7309140000000000 H
   0.4415560000000000    0.2470160000000000    0.7690860000000000 H
   0.4415560000000000    0.2529840000000000    0.2690860000000000 H
   0.1140010000000000    0.9063570000000000    0.8341650000000000 O
   0.1140010000000000    0.5936430000000000    0.3341650000000000 O
   0.8859990000000000    0.0936430000000000    0.1658350000000000 O
   0.8859990000000000    0.4063570000000000    0.6658350000000000 O
   0.2561440000000000    0.2583530000000000    0.0487850000000000 O
   0.2561440000000000    0.2416470000000000    0.5487850000000000 O
   0.7438560000000000    0.7416469999999999    0.9512150000000000 O
   0.7438560000000000    0.7583530000000001    0.4512150000000000 O
   0.4138720000000000    0.7543670000000000    0.1308270000000000 O
   0.4138720000000000    0.7456330000000000    0.6308270000000000 O
   0.5861280000000000    0.2456330000000000    0.8691730000000000 O
   0.5861280000000000    0.2543670000000000    0.3691730000000000 O
