Li1 La4 Ho4 O12
1.0
   6.2608829999999998   -0.0528560000000000   -0.0848570000000000
  -0.0761240000000000    8.5494210000000006    0.0728580000000000
  -0.0816950000000000    0.0493190000000000    5.8698379999999997
Li La Ho O
1 4 4 12
direct
   0.7508480000000000    0.3546350000000000    0.1341530000000000 Li
   0.0965830000000000    0.2146270000000000    0.9814210000000000 La
   0.4364740000000000    0.7564590000000000    0.4711230000000000 La
   0.5579460000000001    0.2548340000000000    0.5461290000000000 La
   0.9357750000000000    0.7615570000000000    0.0111890000000000 La
   0.9988990000000000    0.0010920000000000    0.4945650000000000 Ho
   0.9921320000000000    0.5014470000000000    0.5130980000000001 Ho
   0.5137100000000000    0.9998580000000000    0.0020750000000000 Ho
   0.4571830000000000    0.5245339999999999    0.9935760000000000 Ho
   0.0670110000000000    0.7462610000000000    0.6368720000000000 O
   0.1907340000000000    0.5847980000000000    0.2068520000000000 O
   0.1963600000000000    0.9483330000000000    0.1830610000000000 O
   0.2922620000000000    0.4211070000000000    0.6963070000000000 O
   0.3103560000000000    0.0669330000000000    0.6861450000000000 O
   0.4676670000000000    0.2568760000000000    0.1291180000000000 O
   0.5550410000000000    0.7543810000000000    0.8595650000000000 O
   0.7035260000000000    0.9185000000000000    0.3077480000000000 O
   0.6873500000000000    0.5548689999999999    0.2965220000000000 O
   0.8213190000000000    0.0516880000000000    0.8158790000000000 O
   0.7912460000000000    0.4236670000000000    0.8167910000000000 O
   0.9275790000000000    0.2551070000000000    0.3532290000000000 O
