Li4 Te4 P4 O20
1.0
   6.8156059999999998    0.0000000000000000    0.0000000000000000
   0.0000000000000000    7.3658419999999998    0.0000000000000000
   0.0000000000000000    0.0000000000000000    8.7616499999999995
Li Te P O
4 4 4 20
direct
   0.0000000000000000    0.0000000000000000    0.0000000000000000 Li
   0.5000000000000000    0.0000000000000000    0.0000000000000000 Li
   0.0000000000000000    0.5000000000000000    0.5000000000000000 Li
   0.5000000000000000    0.5000000000000000    0.5000000000000000 Li
   0.2500000000000000    0.7215150000000000    0.1371560000000000 Te
   0.7500000000000000    0.2215150000000000    0.3628440000000000 Te
   0.2500000000000000    0.7784850000000000    0.6371559999999999 Te
   0.7500000000000000    0.2784850000000000    0.8628440000000001 Te
   0.7500000000000000    0.6366830000000000    0.1269920000000000 P
   0.2500000000000000    0.1366830000000000    0.3730080000000000 P
   0.7500000000000000    0.8633170000000000    0.6269920000000000 P
   0.2500000000000000    0.3633170000000000    0.8730080000000000 P
   0.2500000000000000    0.4730650000000000    0.0258900000000000 O
   0.7500000000000000    0.1433120000000000    0.0415120000000000 O
   0.5683150000000000    0.7661350000000000    0.1240660000000000 O
   0.9316850000000000    0.7661350000000000    0.1240660000000000 O
   0.2500000000000000    0.0162510000000000    0.2296590000000000 O
   0.7500000000000000    0.5162510000000000    0.2703410000000000 O
   0.0683150000000000    0.2661350000000000    0.3759340000000000 O
   0.4316850000000000    0.2661350000000000    0.3759340000000000 O
   0.2500000000000000    0.6433120000000000    0.4584880000000000 O
   0.7500000000000000    0.9730650000000000    0.4741100000000000 O
   0.2500000000000000    0.0269350000000000    0.5258900000000000 O
   0.7500000000000000    0.3566880000000000    0.5415120000000000 O
   0.5683150000000000    0.7338650000000000    0.6240660000000000 O
   0.9316850000000000    0.7338650000000000    0.6240660000000000 O
   0.2500000000000000    0.4837490000000000    0.7296589999999999 O
   0.7500000000000000    0.9837490000000000    0.7703410000000001 O
   0.0683150000000000    0.2338650000000000    0.8759340000000000 O
   0.4316850000000000    0.2338650000000000    0.8759340000000000 O
   0.2500000000000000    0.8566880000000000    0.9584880000000000 O
   0.7500000000000000    0.5269350000000000    0.9741100000000000 O
