Li8 Mg8 S12 O48
1.0
   8.5254759900000003   -0.0000000000000000    0.0000000000000000
   0.0000000000000000    8.6869400599999995    0.0000000000000000
   0.0000000000000000    0.0000000000000000   12.1201387399999998
Li Mg S O
8 8 12 48
direct
   0.2862791200000000    0.7762413800000000    0.6812866300000000 Li
   0.2862791200000000    0.7237586200000000    0.3187133700000000 Li
   0.2137208800000000    0.2762413800000000    0.8187133700000000 Li
   0.2137208800000000    0.2237586200000000    0.1812866300000000 Li
   0.7137208800000000    0.2237586200000000    0.3187133700000000 Li
   0.7137208800000000    0.2762413800000000    0.6812866300000000 Li
   0.7862791200000000    0.7237586200000000    0.1812866300000000 Li
   0.7862791200000000    0.7762413800000000    0.8187133700000000 Li
   0.2456996300000000    0.0410707700000000    0.3892429300000000 Mg
   0.2456996300000000    0.4589292300000000    0.6107570700000000 Mg
   0.2543003700000000    0.9589292300000000    0.8892429300000000 Mg
   0.2543003700000000    0.5410707700000000    0.1107570700000000 Mg
   0.7543003700000001    0.5410707700000000    0.3892429300000000 Mg
   0.7543003700000001    0.9589292300000000    0.6107570700000000 Mg
   0.7456996299999999    0.0410707700000000    0.1107570700000000 Mg
   0.7456996299999999    0.4589292300000000    0.8892429300000000 Mg
   0.9526446400000000    0.2500000000000000    0.5000000000000000 S
   0.5473553600000000    0.7500000000000000   -0.0000000000000000 S
   0.6054311800000000    0.6041420400000000    0.6484217799999999 S
   0.4526446400000000    0.2500000000000000   -0.0000000000000000 S
   0.0473553600000000    0.7500000000000000    0.5000000000000000 S
   0.6054311800000000    0.8958579600000000    0.3515782200000000 S
   0.8945688200000000    0.1041420400000000    0.8515782200000001 S
   0.8945688200000000    0.3958579600000000    0.1484217800000000 S
   0.3945688200000000    0.3958579600000000    0.3515782200000000 S
   0.3945688200000000    0.1041420400000000    0.6484217799999999 S
   0.1054311800000000    0.8958579600000000    0.1484217800000000 S
   0.1054311800000000    0.6041420400000000    0.8515782200000001 S
   0.3321030700000000    0.2560730900000000    0.6815567800000000 O
   0.1692531200000000    0.4846767900000000    0.7770596900000000 O
   0.1692531200000000    0.0153232100000000    0.2229403100000000 O
   0.3307468800000000    0.9846767900000000    0.7229403100000000 O
   0.3307468800000000    0.5153232100000000    0.2770596900000000 O
   0.8307468800000000    0.5153232100000000    0.2229403100000000 O
   0.8307468800000000    0.9846767900000000    0.7770596900000000 O
   0.6692531200000000    0.0153232100000000    0.2770596900000000 O
   0.6692531200000000    0.4846767900000000    0.7229403100000000 O
   0.1492054300000000    0.5680783400000000    0.9641515200000000 O
   0.1492054300000000    0.9319216600000000    0.0358484800000000 O
   0.3507945700000000    0.0680783400000000    0.5358484800000000 O
   0.3507945700000000    0.4319216600000000    0.4641515200000000 O
   0.8507945700000000    0.4319216600000000    0.0358484800000000 O
   0.8507945700000000    0.0680783400000000    0.9641515200000000 O
   0.6492054300000000    0.9319216600000000    0.4641515200000000 O
   0.6492054300000000    0.5680783400000000    0.5358484800000000 O
   0.1678969300000000    0.7560730900000000    0.8184432200000000 O
   0.8321030699999999    0.2439269100000000    0.1815567800000000 O
   0.3321030700000000    0.2439269100000000    0.3184432200000000 O
   0.1510909600000000    0.6688173400000000    0.5788309000000000 O
   0.1510909600000000    0.8311826600000000    0.4211691000000000 O
   0.3489090400000000    0.1688173400000000    0.9211691000000000 O
   0.3489090400000000    0.3311826600000000    0.0788309000000000 O
   0.8489090400000000    0.3311826600000000    0.4211691000000000 O
   0.8489090400000000    0.1688173400000000    0.5788309000000000 O
   0.6510909600000000    0.8311826600000000    0.0788309000000000 O
   0.6510909600000000    0.6688173400000000    0.9211691000000000 O
   0.9535760100000000    0.8591540700000000    0.5621968600000000 O
   0.9535760100000000    0.6408459300000000    0.4378031400000000 O
   0.5464239900000000    0.3591540700000000    0.9378031400000000 O
   0.5464239900000000    0.1408459300000000    0.0621968600000000 O
   0.0464239900000000    0.1408459300000000    0.4378031400000000 O
   0.0464239900000000    0.3591540700000000    0.5621968600000000 O
   0.4535760100000000    0.6408459300000000    0.0621968600000000 O
   0.4535760100000000    0.8591540700000000    0.9378031400000000 O
   0.4332416400000000    0.6074575300000000    0.6595436900000000 O
   0.4332416400000000    0.8925424700000000    0.3404563100000000 O
   0.0667583600000000    0.1074575300000000    0.8404563100000000 O
   0.0667583600000000    0.3925424700000000    0.1595436900000000 O
   0.5667583600000000    0.3925424700000000    0.3404563100000000 O
   0.5667583600000000    0.1074575300000000    0.6595436900000000 O
   0.9332416400000000    0.8925424700000000    0.1595436900000000 O
   0.9332416400000000    0.6074575300000000    0.8404563100000000 O
   0.6678969300000001    0.7560730900000000    0.6815567800000000 O
   0.6678969300000001    0.7439269100000000    0.3184432200000000 O
   0.8321030699999999    0.2560730900000000    0.8184432200000000 O
   0.1678969300000000    0.7439269100000000    0.1815567800000000 O
