pymatgen with grid density = 1268 / number of atoms
0
Gamma
2 2 3
