pymatgen with grid density = 1411 / number of atoms
0
Gamma
4 1 1
