Li24 Sb8 P16 O64
1.0
   5.2491329999999996    0.0000000000000000    0.0000000000000000
   0.0000000000000000   12.9469049999999992    0.0000000000000000
   0.0000000000000000    6.3293330000000001   18.5457910000000012
Li Sb P O
24 8 16 64
direct
   0.7638750000000000    0.6807130000000000    0.9619610000000000 Li
   0.2945780000000000    0.7936760000000000    0.8721850000000000 Li
   0.7025530000000000    0.9433450000000000    0.8066340000000000 Li
   0.7361250000000000    0.1807130000000000    0.9619610000000000 Li
   0.2054220000000000    0.2936760000000000    0.8721850000000000 Li
   0.7974470000000000    0.4433450000000000    0.8066340000000000 Li
   0.2112640000000000    0.7518850000000000    0.6916350000000000 Li
   0.7943000000000000    0.6714160000000000    0.6273730000000000 Li
   0.2887360000000000    0.2518850000000000    0.6916350000000000 Li
   0.2649650000000000    0.6415670000000000    0.5412700000000000 Li
   0.7057000000000000    0.1714160000000000    0.6273730000000000 Li
   0.7649650000000000    0.8584330000000000    0.4587300000000000 Li
   0.2350350000000000    0.1415670000000000    0.5412700000000000 Li
   0.2943000000000000    0.8285840000000000    0.3726270000000000 Li
   0.7350350000000000    0.3584330000000000    0.4587300000000000 Li
   0.7112640000000000    0.7481150000000000    0.3083650000000000 Li
   0.2057000000000000    0.3285840000000000    0.3726270000000000 Li
   0.7887360000000000    0.2481150000000000    0.3083650000000000 Li
   0.2025530000000000    0.5566550000000000    0.1933660000000000 Li
   0.7945780000000000    0.7063240000000000    0.1278150000000000 Li
   0.2638750000000000    0.8192870000000000    0.0380390000000000 Li
   0.2974470000000000    0.0566550000000000    0.1933660000000000 Li
   0.7054220000000000    0.2063240000000000    0.1278150000000000 Li
   0.2361250000000000    0.3192870000000000    0.0380390000000000 Li
   0.3149780000000000    0.5389119999999999    0.8748760000000000 Sb
   0.1850220000000000    0.0389120000000000    0.8748760000000000 Sb
   0.6863060000000000    0.9141830000000000    0.6244560000000000 Sb
   0.8136940000000000    0.4141830000000000    0.6244560000000000 Sb
   0.1863060000000000    0.5858170000000000    0.3755440000000000 Sb
   0.3136940000000000    0.0858170000000000    0.3755440000000000 Sb
   0.8149780000000000    0.9610880000000001    0.1251240000000000 Sb
   0.6850220000000000    0.4610880000000000    0.1251240000000000 Sb
   0.7257160000000000    0.9146320000000000    0.9595900000000001 P
   0.7742840000000000    0.4146320000000000    0.9595900000000001 P
   0.7842080000000000    0.7129120000000000    0.7903530000000000 P
   0.7157920000000000    0.2129120000000000    0.7903530000000000 P
   0.2873030000000000    0.5014550000000000    0.7091070000000000 P
   0.2249660000000000    0.8768319999999999    0.5382220000000000 P
   0.2126970000000000    0.0014550000000000    0.7091070000000000 P
   0.2750340000000000    0.3768320000000000    0.5382220000000000 P
   0.7249660000000000    0.6231680000000001    0.4617780000000000 P
   0.7873030000000000    0.9985450000000000    0.2908930000000000 P
   0.7750340000000000    0.1231680000000000    0.4617780000000000 P
   0.7126970000000000    0.4985450000000000    0.2908930000000000 P
   0.2842080000000000    0.7870880000000000    0.2096470000000000 P
   0.2157920000000000    0.2870880000000000    0.2096470000000000 P
   0.2257160000000000    0.5853680000000000    0.0404100000000000 P
   0.2742840000000000    0.0853680000000000    0.0404100000000000 P
   0.4745980000000000    0.9063820000000000    0.9184510000000000 O
   0.9523850000000000    0.8994030000000000    0.9085810000000000 O
   0.2344020000000000    0.6846960000000000    0.9717030000000000 O
   0.7433580000000000    0.5269880000000000    0.9686560000000000 O
   0.2981090000000000    0.9797250000000000    0.7906440000000000 O
   0.6474839999999999    0.7761900000000000    0.8334190000000000 O
   0.0254020000000000    0.4063820000000000    0.9184510000000000 O
   0.5476150000000000    0.3994030000000000    0.9085810000000000 O
   0.2655980000000000    0.1846960000000000    0.9717030000000000 O
   0.0777500000000000    0.7134580000000000    0.7991260000000000 O
   0.7566420000000000    0.0269880000000000    0.9686560000000000 O
   0.6807290000000000    0.5936240000000000    0.8123440000000000 O
   0.9190110000000000    0.9968480000000000    0.7066260000000000 O
   0.3282520000000000    0.9043460000000000    0.6887380000000000 O
   0.2018910000000000    0.4797250000000000    0.7906440000000000 O
   0.8525160000000001    0.2761900000000000    0.8334190000000000 O
   0.7295560000000000    0.7609629999999999    0.7059360000000000 O
   0.4222500000000000    0.2134580000000000    0.7991260000000000 O
   0.8192710000000000    0.0936240000000000    0.8123440000000000 O
   0.5809890000000000    0.4968480000000000    0.7066260000000000 O
   0.1709840000000000    0.6100130000000000    0.6611939999999999 O
   0.1717480000000000    0.4043460000000000    0.6887380000000000 O
   0.9875570000000000    0.8239940000000000    0.5857190000000000 O
   0.4616950000000000    0.8134479999999999    0.5837950000000000 O
   0.7704440000000000    0.2609630000000000    0.7059360000000000 O
   0.2522390000000000    0.9979370000000000    0.5296480000000000 O
   0.7151010000000000    0.6533150000000000    0.5312100000000000 O
   0.3290160000000000    0.1100130000000000    0.6611939999999999 O
   0.2151010000000000    0.8466850000000000    0.4687900000000000 O
   0.5124430000000000    0.3239940000000000    0.5857190000000000 O
   0.0383050000000000    0.3134480000000000    0.5837950000000000 O
   0.2477610000000000    0.4979370000000000    0.5296480000000000 O
   0.7522390000000000    0.5020630000000000    0.4703520000000000 O
   0.9616950000000000    0.6865520000000001    0.4162050000000000 O
   0.4875570000000000    0.6760060000000000    0.4142810000000000 O
   0.7848990000000000    0.1533150000000000    0.5312100000000000 O
   0.6709840000000000    0.8899870000000000    0.3388060000000000 O
   0.2848990000000000    0.3466850000000000    0.4687900000000000 O
   0.7477610000000000    0.0020630000000000    0.4703520000000000 O
   0.2295560000000000    0.7390370000000001    0.2940640000000000 O
   0.5383050000000000    0.1865520000000000    0.4162050000000000 O
   0.0124430000000000    0.1760060000000000    0.4142810000000000 O
   0.8282520000000000    0.5956540000000000    0.3112620000000000 O
   0.8290160000000000    0.3899870000000000    0.3388060000000000 O
   0.4190110000000000    0.5031520000000000    0.2933740000000000 O
   0.1807290000000000    0.9063760000000000    0.1876560000000000 O
   0.5777500000000000    0.7865420000000000    0.2008740000000000 O
   0.2704440000000000    0.2390370000000000    0.2940640000000000 O
   0.1474840000000000    0.7238100000000000    0.1665810000000000 O
   0.7981090000000000    0.5202750000000000    0.2093560000000000 O
   0.6717480000000000    0.0956540000000000    0.3112620000000000 O
   0.0809890000000000    0.0031520000000000    0.2933740000000000 O
   0.3192710000000000    0.4063760000000000    0.1876560000000000 O
   0.2433580000000000    0.9730120000000000    0.0313440000000000 O
   0.9222500000000000    0.2865420000000000    0.2008740000000000 O
   0.7344020000000000    0.8153040000000000    0.0282970000000000 O
   0.4523850000000000    0.6005970000000000    0.0914190000000000 O
   0.9745980000000000    0.5936180000000000    0.0815490000000000 O
   0.3525160000000000    0.2238100000000000    0.1665810000000000 O
   0.7018910000000000    0.0202750000000000    0.2093560000000000 O
   0.2566420000000000    0.4730120000000000    0.0313440000000000 O
   0.7655980000000000    0.3153040000000000    0.0282970000000000 O
   0.0476150000000000    0.1005970000000000    0.0914190000000000 O
   0.5254020000000000    0.0936180000000000    0.0815490000000000 O
