Sr4 Li2 Te2 O12
1.0
   4.7016629999999999    0.0000000000000000   -3.2756170000000000
   0.0000000000000000    5.8169490000000001    0.0000000000000000
   4.6632920000000002    0.0000000000000000    6.5024590000000000
Sr Li Te O
4 2 2 12
direct
   0.0077030000000000    0.4672680000000000    0.2527620000000000 Sr
   0.9922970000000000    0.5327320000000000    0.7472380000000000 Sr
   0.4922970000000000    0.9672680000000000    0.2472380000000000 Sr
   0.5077030000000000    0.0327320000000000    0.7527620000000000 Sr
   0.0000000000000000    0.0000000000000000    0.5000000000000000 Li
   0.5000000000000000    0.5000000000000000    0.0000000000000000 Li
   0.0000000000000000    0.0000000000000000    0.0000000000000000 Te
   0.5000000000000000    0.5000000000000000    0.5000000000000000 Te
   0.9420880000000000    0.0142780000000000    0.2394760000000000 O
   0.0579120000000000    0.9857220000000000    0.7605240000000000 O
   0.5579120000000000    0.5142780000000000    0.2605240000000000 O
   0.4420880000000000    0.4857230000000000    0.7394760000000000 O
   0.2031280000000000    0.7371810000000000    0.0327490000000000 O
   0.7968720000000000    0.2628190000000000    0.9672510000000000 O
   0.2968720000000000    0.2371810000000000    0.4672510000000000 O
   0.7031280000000000    0.7628190000000000    0.5327490000000000 O
   0.2667600000000000    0.2036200000000000    0.0261350000000000 O
   0.7332400000000000    0.7963800000000000    0.9738650000000000 O
   0.2332400000000000    0.7036200000000000    0.4738650000000000 O
   0.7667600000000000    0.2963800000000000    0.5261350000000000 O
