Li4 Sc3 In1 Si8 O24
1.0
   6.7368439999999996    0.0000000000000000    0.0000000000000000
  -0.8182640000000000    7.4396449999999996    0.0000000000000000
  -1.9696089999999999   -2.3643540000000001    9.1716739999999994
Li Sc In Si O
4 3 1 8 24
direct
   0.7477120000000000    0.2507750000000000    0.4989850000000000 Li
   0.7489360000000000    0.7508920000000000    0.9993460000000000 Li
   0.2520750000000000    0.7493730000000000    0.5003700000000000 Li
   0.2513360000000000    0.2489740000000000    0.0013360000000000 Li
   0.3913530000000000    0.4290640000000000    0.3209040000000000 Sc
   0.6095620000000000    0.0720670000000000    0.1809210000000000 Sc
   0.6083880000000000    0.5689240000000000    0.6780650000000000 Sc
   0.3949090000000000    0.9277380000000000    0.8222460000000000 In
   0.8852300000000000    0.9961870000000000    0.7812260000000000 Si
   0.8858470000000001    0.4953740000000000    0.2818000000000000 Si
   0.2858040000000000    0.1691810000000000    0.5532560000000000 Si
   0.2856340000000000    0.6680100000000000    0.0549470000000000 Si
   0.1139910000000000    0.0051000000000000    0.2178190000000000 Si
   0.1133090000000000    0.5036840000000000    0.7181480000000000 Si
   0.7131150000000001    0.8311580000000000    0.4454840000000000 Si
   0.7141000000000000    0.3328050000000000    0.9458490000000001 Si
   0.8430000000000000    0.7078550000000000    0.3426420000000000 O
   0.8406620000000000    0.2081840000000000    0.8416960000000000 O
   0.1335070000000000    0.0543290000000000    0.3954740000000000 O
   0.1347250000000000    0.5536660000000000    0.8961380000000000 O
   0.1563430000000000    0.2912660000000000    0.6573390000000000 O
   0.1564250000000000    0.7921810000000000    0.1574700000000000 O
   0.8654790000000000    0.9469420000000000    0.6033900000000000 O
   0.8659400000000000    0.4475820000000000    0.1039160000000000 O
   0.1154740000000000    0.9927859999999999    0.8683750000000000 O
   0.1197840000000000    0.4887040000000000    0.3619460000000000 O
   0.3757220000000000    0.0121130000000000    0.6269430000000000 O
   0.3730230000000000    0.5143510000000000    0.1346410000000000 O
   0.8796110000000000    0.0111080000000000    0.1378960000000000 O
   0.8797509999999999    0.5108510000000001    0.6377260000000000 O
   0.6268640000000000    0.9853440000000000    0.3655880000000000 O
   0.6268680000000000    0.4861540000000000    0.8653470000000000 O
   0.7070109999999999    0.8455950000000000    0.8093760000000000 O
   0.7050660000000000    0.3477010000000000    0.3097050000000000 O
   0.4615250000000000    0.3201230000000000    0.5233190000000000 O
   0.4642040000000000    0.8177190000000000    0.0264560000000000 O
   0.2957410000000000    0.1526270000000000    0.1908420000000000 O
   0.2943880000000000    0.6471320000000000    0.6864580000000000 O
   0.5382920000000000    0.6803960000000000    0.4759990000000000 O
   0.5392930000000000    0.1859840000000000    0.9806130000000000 O
