Li2 Sn5 P4 O16
1.0
   5.1790649999999996    0.0000000000000000    0.0000000000000000
  -1.6566310000000000    9.5129889999999993    0.0000000000000000
  -2.0166369999999998   -4.6118100000000002    8.3198179999999997
Li Sn P O
2 5 4 16
direct
   0.6331150000000000    0.1756710000000000    0.2543140000000000 Li
   0.3668850000000000    0.8243290000000000    0.7456860000000000 Li
   0.7714400000000000    0.5471549999999999    0.7686730000000001 Sn
   0.0000000000000000    0.0000000000000000    0.0000000000000000 Sn
   0.9753230000000001    0.1946340000000000    0.6675050000000000 Sn
   0.0246770000000000    0.8053660000000000    0.3324950000000000 Sn
   0.2285600000000000    0.4528450000000000    0.2313270000000000 Sn
   0.2162680000000000    0.2497820000000000    0.4375020000000000 P
   0.4460290000000000    0.7751530000000000    0.0504290000000000 P
   0.5539710000000000    0.2248470000000000    0.9495710000000001 P
   0.7837320000000000    0.7502180000000001    0.5624980000000001 P
   0.6066100000000000    0.7541480000000000    0.9228160000000000 O
   0.1587010000000000    0.6486310000000000    0.9682620000000000 O
   0.0356230000000000    0.2495550000000000    0.2824660000000000 O
   0.5094930000000000    0.2600870000000000    0.4312040000000000 O
   0.2011400000000000    0.3832160000000000    0.5952570000000000 O
   0.4167670000000000    0.9474070000000000    0.1162110000000000 O
   0.3922940000000000    0.2498970000000000    0.8137760000000001 O
   0.0603260000000000    0.0890910000000000    0.4305070000000000 O
   0.9396740000000000    0.9109090000000000    0.5694930000000000 O
   0.6077060000000000    0.7501030000000000    0.1862240000000000 O
   0.5832330000000000    0.0525930000000000    0.8837890000000000 O
   0.7988600000000000    0.6167840000000000    0.4047430000000000 O
   0.4905070000000000    0.7399130000000000    0.5687960000000000 O
   0.9643770000000000    0.7504450000000000    0.7175340000000000 O
   0.8412990000000000    0.3513690000000000    0.0317380000000000 O
   0.3933900000000000    0.2458520000000000    0.0771840000000000 O
