Li1 Mg30 Ga1 O32
1.0
   8.4992000000000001    0.0000000000000000    0.0000000000000000
   0.0000000000000000    8.4992000000000001    0.0000000000000000
   0.0000000000000000    0.0000000000000000    8.4995340000000006
Li Mg Ga O
1 30 1 32
direct
   0.0000000000000000    0.0000000000000000    0.0000000000000000 Li
   0.0000000000000000    0.5000000000000000    0.0000000000000000 Mg
   0.5000000000000000    0.0000000000000000    0.0000000000000000 Mg
   0.0000000000000000    0.0000000000000000    0.5000000000000000 Mg
   0.0000000000000000    0.5000000000000000    0.5000000000000000 Mg
   0.5000000000000000    0.0000000000000000    0.5000000000000000 Mg
   0.5000000000000000    0.5000000000000000    0.5000000000000000 Mg
   0.2447660000000000    0.2447660000000000    0.0000000000000000 Mg
   0.2447660000000000    0.7552340000000000    0.0000000000000000 Mg
   0.7552340000000000    0.2447660000000000    0.0000000000000000 Mg
   0.7552340000000000    0.7552340000000000    0.0000000000000000 Mg
   0.2486520000000000    0.2486520000000000    0.5000000000000000 Mg
   0.2486520000000000    0.7513480000000000    0.5000000000000000 Mg
   0.7513480000000000    0.2486520000000000    0.5000000000000000 Mg
   0.7513480000000000    0.7513480000000000    0.5000000000000000 Mg
   0.0000000000000000    0.2461750000000000    0.2474240000000000 Mg
   0.0000000000000000    0.7538250000000000    0.2474240000000000 Mg
   0.5000000000000000    0.2475590000000000    0.2511320000000000 Mg
   0.5000000000000000    0.7524410000000000    0.2511320000000000 Mg
   0.0000000000000000    0.2461750000000000    0.7525760000000000 Mg
   0.0000000000000000    0.7538250000000000    0.7525760000000000 Mg
   0.5000000000000000    0.2475590000000000    0.7488680000000000 Mg
   0.5000000000000000    0.7524410000000000    0.7488680000000000 Mg
   0.2461750000000000    0.0000000000000000    0.2474240000000000 Mg
   0.2475590000000000    0.5000000000000000    0.2511320000000000 Mg
   0.7538250000000000    0.0000000000000000    0.2474240000000000 Mg
   0.7524410000000000    0.5000000000000000    0.2511320000000000 Mg
   0.2461750000000000    0.0000000000000000    0.7525760000000000 Mg
   0.2475590000000000    0.5000000000000000    0.7488680000000000 Mg
   0.7538250000000000    0.0000000000000000    0.7525760000000000 Mg
   0.7524410000000000    0.5000000000000000    0.7488680000000000 Mg
   0.5000000000000000    0.5000000000000000    0.0000000000000000 Ga
   0.0000000000000000    0.0000000000000000    0.2558020000000000 O
   0.0000000000000000    0.5000000000000000    0.2494900000000000 O
   0.5000000000000000    0.0000000000000000    0.2494900000000000 O
   0.5000000000000000    0.5000000000000000    0.2429400000000000 O
   0.0000000000000000    0.0000000000000000    0.7441980000000000 O
   0.0000000000000000    0.5000000000000000    0.7505100000000000 O
   0.5000000000000000    0.0000000000000000    0.7505100000000000 O
   0.5000000000000000    0.5000000000000000    0.7570600000000000 O
   0.2508540000000000    0.2508540000000000    0.2496580000000000 O
   0.2508540000000000    0.7491460000000000    0.2496580000000000 O
   0.7491460000000000    0.2508540000000000    0.2496580000000000 O
   0.7491460000000000    0.7491460000000000    0.2496580000000000 O
   0.2508540000000000    0.2508540000000000    0.7503420000000000 O
   0.2508540000000000    0.7491460000000000    0.7503420000000000 O
   0.7491460000000000    0.2508540000000000    0.7503420000000000 O
   0.7491460000000000    0.7491460000000000    0.7503420000000000 O
   0.0000000000000000    0.2583930000000000    0.0000000000000000 O
   0.0000000000000000    0.7416070000000000    0.0000000000000000 O
   0.5000000000000000    0.2595290000000000    0.0000000000000000 O
   0.5000000000000000    0.7404710000000000    0.0000000000000000 O
   0.0000000000000000    0.2518090000000000    0.5000000000000000 O
   0.0000000000000000    0.7481910000000001    0.5000000000000000 O
   0.5000000000000000    0.2523150000000000    0.5000000000000000 O
   0.5000000000000000    0.7476850000000000    0.5000000000000000 O
   0.2583930000000000    0.0000000000000000    0.0000000000000000 O
   0.2595290000000000    0.5000000000000000    0.0000000000000000 O
   0.7416070000000000    0.0000000000000000    0.0000000000000000 O
   0.7404710000000000    0.5000000000000000    0.0000000000000000 O
   0.2518090000000000    0.0000000000000000    0.5000000000000000 O
   0.2523150000000000    0.5000000000000000    0.5000000000000000 O
   0.7481910000000001    0.0000000000000000    0.5000000000000000 O
   0.7476850000000000    0.5000000000000000    0.5000000000000000 O
