Li1 Mg6 Bi1 O8
1.0
   8.8667127400000005    0.0000000000000000    0.0000000000000000
   0.0000000000000000    4.4436082800000003    0.0000000000000000
   0.0000000000000000    0.0000000000000000    4.4436082800000003
Li Mg Bi O
1 6 1 8
direct
   0.0000000000000000    0.0000000000000000    0.0000000000000000 Li
  -0.0000000000000000    0.5000000000000000    0.5000000000000000 Mg
   0.5000000000000000    0.5000000000000000    0.5000000000000000 Mg
   0.2235807900000000    0.0000000000000000    0.5000000000000000 Mg
   0.7764192100000000   -0.0000000000000000    0.5000000000000000 Mg
   0.2235807900000000    0.5000000000000000    0.0000000000000000 Mg
   0.7764192100000000    0.5000000000000000   -0.0000000000000000 Mg
   0.5000000000000000   -0.0000000000000000    0.0000000000000000 Bi
   0.2367842300000000    0.0000000000000000    0.0000000000000000 O
   0.7632157700000000   -0.0000000000000000   -0.0000000000000000 O
   0.2536864900000000    0.5000000000000000    0.5000000000000000 O
   0.7463135100000000    0.5000000000000000    0.5000000000000000 O
  -0.0000000000000000    0.0000000000000000    0.5000000000000000 O
   0.5000000000000000    0.0000000000000000    0.5000000000000000 O
  -0.0000000000000000    0.5000000000000000    0.0000000000000000 O
   0.5000000000000000    0.5000000000000000    0.0000000000000000 O
