pymatgen with grid density = 1350 / number of atoms
0
Gamma
2 5 5
