Cs1 Li1 Mg6 O7
1.0
   8.5215504200000005   -0.0000000000000000    0.0000000000000000
  -0.0000000000000000    4.5497385599999998    0.0000000000000000
   0.0000000000000000    0.0000000000000000    4.5497385599999998
Cs Li Mg O
1 1 6 7
direct
   0.0845845000000000    0.5000000000000000    0.5000000000000000 Cs
   0.9806302700000000    0.0000000000000000   -0.0000000000000000 Li
   0.4952255500000000    0.0000000000000000   -0.0000000000000000 Mg
   0.5171750600000000    0.5000000000000000    0.5000000000000000 Mg
   0.2431251600000000    0.0000000000000000    0.5000000000000000 Mg
   0.7616311500000000   -0.0000000000000000    0.5000000000000000 Mg
   0.2431251600000000    0.5000000000000000    0.0000000000000000 Mg
   0.7616311500000000    0.5000000000000000    0.0000000000000000 Mg
   0.2524421400000000    0.0000000000000000   -0.0000000000000000 O
   0.7306462600000000    0.0000000000000000    0.0000000000000000 O
   0.7389476100000000    0.5000000000000000    0.5000000000000000 O
   0.9932424100000000    0.0000000000000000    0.5000000000000000 O
   0.4771755900000000   -0.0000000000000000    0.5000000000000000 O
   0.9932424100000000    0.5000000000000000   -0.0000000000000000 O
   0.4771755900000000    0.5000000000000000   -0.0000000000000000 O
