Li2 Al2 Si4 O14
1.0
  -5.0231990000000000    0.0000000000000000    0.0000000000000000
  -0.0088930000000000   -7.7147910000000000    0.0000000000000000
   0.0405230000000000    3.6022820000000002    7.9005859999999997
Li Al Si O
2 2 4 14
direct
   0.3865530000000000    0.1348070000000000    0.2921300000000000 Li
   0.8818180000000000    0.8703270000000000    0.6810360000000000 Li
   0.8925270000000000    0.9331860000000000    0.3666780000000000 Al
   0.3800320000000000    0.8997620000000000    0.8784980000000000 Al
   0.8803050000000000    0.0882610000000000    0.0862550000000000 Si
   0.8270620000000000    0.5024800000000000    0.0986960000000000 Si
   0.3251310000000000    0.4840230000000000    0.8805520000000000 Si
   0.3909600000000000    0.0597750000000000    0.6042890000000000 Si
   0.7558640000000000    0.0395800000000000    0.2380780000000000 O
   0.1995610000000000    0.0380570000000000    0.0658550000000000 O
   0.8360450000000000    0.3167210000000000    0.1450330000000000 O
   0.5236320000000000    0.5278250000000000    0.0424570000000000 O
   0.9206569999999999    0.6876360000000000    0.2619100000000000 O
   0.2107900000000000    0.0338340000000000    0.4383510000000000 O
   0.2571350000000000    0.9460410000000000    0.7078600000000000 O
   0.7209860000000000    0.9652920000000000    0.9081310000000000 O
   0.3364100000000000    0.6558860000000000    0.8188040000000000 O
   0.0219080000000000    0.4618500000000000    0.9364440000000001 O
   0.4119170000000000    0.2866780000000000    0.7261350000000000 O
   0.6927270000000000    0.9822850000000000    0.5466280000000000 O
   0.4549400000000000    0.4418440000000000    0.4484670000000000 O
   0.7706400000000000    0.5677510000000000    0.5575140000000000 O
