Li2 S2 O6 F2
1.0
   3.8442390000000000    4.3062350000000000    0.0000000000000000
  -3.8442390000000000    4.3062350000000000    0.0000000000000000
   0.0000000000000000    0.1516010000000000    5.3055300000000001
Li S O F
2 2 6 2
direct
   0.1928840000000000    0.8071159999999999    0.0000000000000000 Li
   0.8071159999999999    0.1928840000000000    0.0000000000000000 Li
   0.7080620000000000    0.7080620000000000    0.2555720000000000 S
   0.2919380000000000    0.2919380000000000    0.7444280000000000 S
   0.5344360000000000    0.2143200000000000    0.7893160000000000 O
   0.7856800000000000    0.4655640000000000    0.2106840000000000 O
   0.1306240000000000    0.1306240000000000    0.8416270000000000 O
   0.8693760000000000    0.8693760000000000    0.1583730000000000 O
   0.2143200000000000    0.5344360000000000    0.7893160000000000 O
   0.4655640000000000    0.7856800000000000    0.2106840000000000 O
   0.7284540000000000    0.7284540000000000    0.5542330000000000 F
   0.2715460000000000    0.2715460000000000    0.4457670000000000 F
