Li6 Eu4 B6 O18
1.0
   7.2033690000000004    0.0000000000000000   -2.3449360000000001
   0.0000000000000000   10.4092570000000002    0.0000000000000000
  -0.2403750000000000    0.0000000000000000    6.5343359999999997
Li Eu B O
6 4 6 18
direct
   0.4386970000000000    0.8082130000000000    0.3238700000000000 Li
   0.5613030000000000    0.3082130000000000    0.6761300000000000 Li
   0.7290460000000000    0.7968820000000000    0.1487570000000000 Li
   0.2709540000000000    0.2968820000000000    0.8512430000000000 Li
   0.7813130000000000    0.9167540000000000    0.6741860000000000 Li
   0.2186870000000000    0.4167540000000000    0.3258140000000000 Li
   0.9892919999999999    0.6144460000000000    0.8911600000000000 Eu
   0.0107080000000000    0.1144460000000000    0.1088400000000000 Eu
   0.7502090000000000    0.4538650000000000    0.2751730000000000 Eu
   0.2497910000000000    0.9538650000000000    0.7248270000000000 Eu
   0.3994900000000000    0.6598590000000000    0.0420330000000000 B
   0.6005100000000000    0.1598590000000000    0.9579670000000000 B
   0.5646369999999999    0.7218410000000000    0.7262010000000000 B
   0.4353630000000000    0.2218410000000000    0.2737990000000000 B
   0.6105170000000000    0.0126520000000000    0.2553280000000000 B
   0.3894830000000000    0.5126520000000000    0.7446720000000000 B
   0.5749620000000000    0.6518290000000000    0.1919050000000000 O
   0.4250380000000000    0.1518290000000000    0.8080950000000000 O
   0.3203360000000000    0.5474970000000000    0.9124330000000000 O
   0.6796640000000000    0.0474970000000000    0.0875670000000000 O
   0.2808140000000000    0.7629980000000000    0.0101390000000000 O
   0.7191860000000000    0.2629980000000000    0.9898610000000000 O
   0.5363800000000000    0.5862090000000000    0.7231160000000000 O
   0.4636200000000000    0.0862090000000000    0.2768840000000000 O
   0.7418760000000000    0.7666870000000000    0.8447870000000000 O
   0.2581240000000000    0.2666870000000000    0.1552130000000000 O
   0.4205960000000000    0.7983680000000000    0.6088530000000000 O
   0.5794040000000000    0.2983680000000000    0.3911470000000000 O
   0.9939650000000000    0.5110140000000000    0.1778290000000000 O
   0.0060350000000000    0.0110140000000000    0.8221710000000000 O
   0.9088990000000000    0.4930590000000000    0.6100690000000000 O
   0.0911010000000000    0.9930590000000000    0.3899310000000000 O
   0.6707310000000000    0.9043270000000000    0.3644950000000000 O
   0.3292690000000000    0.4043270000000000    0.6355050000000000 O
