Li2 Eu2 S4 O16
1.0
   7.7193820000000004    0.0000000000000000    0.0000000000000000
   0.0000000000000000    7.7193820000000004    0.0000000000000000
   0.0000000000000000    0.0000000000000000    6.2687840000000001
Li Eu S O
2 2 4 16
direct
   0.5000000000000000    0.0000000000000000    0.7500000000000000 Li
   0.0000000000000000    0.5000000000000000    0.2500000000000000 Li
   0.5000000000000000    0.0000000000000000    0.2500000000000000 Eu
   0.0000000000000000    0.5000000000000000    0.7500000000000000 Eu
   0.2211820000000000    0.2788180000000000    0.2500000000000000 S
   0.7788180000000000    0.7211820000000000    0.2500000000000000 S
   0.7211820000000000    0.2211820000000000    0.7500000000000000 S
   0.2788180000000000    0.7788180000000000    0.7500000000000000 S
   0.4018740000000000    0.2937200000000000    0.3312900000000000 O
   0.5981260000000000    0.7062800000000000    0.3312900000000000 O
   0.9018740000000000    0.2062800000000000    0.8312900000000000 O
   0.0981260000000000    0.7937200000000000    0.8312900000000000 O
   0.0921290000000000    0.3168540000000000    0.4236820000000000 O
   0.9078710000000000    0.6831460000000000    0.4236820000000000 O
   0.5921290000000000    0.1831460000000000    0.9236820000000000 O
   0.4078710000000000    0.8168540000000000    0.9236820000000000 O
   0.2062800000000000    0.0981260000000000    0.1687100000000000 O
   0.7937200000000000    0.9018740000000000    0.1687100000000000 O
   0.7062800000000000    0.4018740000000000    0.6687100000000000 O
   0.2937200000000000    0.5981260000000000    0.6687100000000000 O
   0.1831460000000000    0.4078710000000000    0.0763180000000000 O
   0.8168540000000000    0.5921290000000000    0.0763180000000000 O
   0.6831460000000000    0.0921290000000000    0.5763180000000000 O
   0.3168540000000000    0.9078710000000000    0.5763180000000000 O
