pymatgen with grid density = 973 / number of atoms
0
Gamma
2 2 1
