Li8 Sn16 P16 O60
1.0
   7.8093199999999996    5.1592880000000001    0.0000000000000000
  -7.8093199999999996    5.1592880000000001    0.0000000000000000
   0.0000000000000000    2.0194510000000001   20.2396740000000008
Li Sn P O
8 16 16 60
direct
   0.5401290000000000    0.9712320000000000    0.2605890000000000 Li
   0.5584740000000000    0.4577070000000000    0.0975530000000000 Li
   0.5422930000000000    0.4415260000000000    0.4024470000000000 Li
   0.9712320000000000    0.5401290000000000    0.7605890000000000 Li
   0.0287680000000000    0.4598710000000000    0.2394110000000000 Li
   0.4577070000000000    0.5584740000000000    0.5975530000000000 Li
   0.4415260000000000    0.5422930000000000    0.9024470000000000 Li
   0.4598710000000000    0.0287680000000000    0.7394110000000000 Li
   0.0959220000000000    0.1498790000000000    0.4343030000000000 Sn
   0.0730240000000000    0.6650880000000000    0.0633560000000000 Sn
   0.0000000000000000    0.5000000000000000    0.5000000000000000 Sn
   0.1498790000000000    0.0959220000000000    0.9343030000000000 Sn
   0.1939440000000000    0.8060560000000000    0.2500000000000000 Sn
   0.4789790000000000    0.5210210000000000    0.2500000000000000 Sn
   0.9751670000000000    0.0248330000000000    0.2500000000000000 Sn
   0.6650880000000000    0.0730240000000000    0.5633560000000000 Sn
   0.3349120000000000    0.9269760000000000    0.4366440000000000 Sn
   0.0248330000000000    0.9751670000000000    0.7500000000000000 Sn
   0.8060560000000000    0.1939440000000000    0.7500000000000000 Sn
   0.5210210000000000    0.4789790000000000    0.7500000000000000 Sn
   0.8501210000000000    0.9040780000000000    0.0656970000000000 Sn
   0.9269760000000000    0.3349120000000000    0.9366440000000000 Sn
   0.9040780000000000    0.8501210000000000    0.5656970000000000 Sn
   0.5000000000000000    0.0000000000000000    0.0000000000000000 Sn
   0.2611300000000000    0.1234840000000000    0.1041010000000000 P
   0.0494620000000000    0.2882320000000000    0.1125810000000000 P
   0.3642570000000000    0.1654320000000000    0.3219190000000000 P
   0.1234840000000000    0.2611300000000000    0.6041010000000000 P
   0.2882320000000000    0.0494620000000000    0.6125810000000000 P
   0.2297740000000000    0.5373750000000000    0.3721810000000000 P
   0.1654320000000000    0.3642570000000000    0.8219190000000000 P
   0.4626250000000000    0.7702260000000000    0.1278190000000000 P
   0.5373750000000000    0.2297740000000000    0.8721810000000000 P
   0.8345680000000000    0.6357429999999999    0.1780810000000000 P
   0.7702260000000000    0.4626250000000000    0.6278190000000000 P
   0.7117680000000000    0.9505380000000000    0.3874190000000000 P
   0.8765160000000000    0.7388700000000000    0.3958990000000000 P
   0.6357429999999999    0.8345680000000000    0.6780810000000000 P
   0.9505380000000000    0.7117680000000000    0.8874190000000000 P
   0.7388700000000000    0.8765160000000000    0.8958990000000000 P
   0.2091430000000000    0.0622090000000000    0.1772120000000000 O
   0.1862490000000000    0.1357390000000000    0.3251780000000000 O
   0.2121230000000000    0.2737120000000000    0.0907460000000000 O
   0.4371290000000000    0.1966540000000000    0.0847570000000000 O
   0.0549090000000000    0.4277710000000000    0.0669520000000000 O
   0.0622090000000000    0.2091430000000000    0.6772120000000000 O
   0.4311020000000000    0.2232690000000000    0.3879390000000000 O
   0.0954020000000000    0.3885890000000000    0.4084010000000000 O
   0.9999740000000000    0.6245230000000001    0.1823760000000000 O
   0.1357390000000000    0.1862490000000000    0.8251780000000000 O
   0.4549190000000000    0.2757470000000000    0.2616540000000000 O
   0.2737120000000000    0.2121230000000000    0.5907460000000000 O
   0.1966540000000000    0.4371290000000000    0.5847570000000000 O
   0.4277710000000000    0.0549090000000000    0.5669520000000000 O
   0.1834000000000000    0.5645040000000000    0.3011120000000000 O
   0.6884660000000000    0.9564680000000000    0.3141190000000000 O
   0.1709150000000000    0.0006840000000000    0.0572220000000000 O
   0.9151230000000000    0.1375930000000000    0.0967480000000000 O
   0.3267930000000000    0.7685110000000001    0.0857970000000000 O
   0.2232690000000000    0.4311020000000000    0.8879390000000000 O
   0.4799790000000000    0.6134290000000000    0.1299910000000000 O
   0.3885890000000000    0.0954020000000000    0.9084010000000000 O
   0.3865710000000000    0.5200210000000000    0.3700090000000000 O
   0.2314890000000000    0.6732070000000000    0.4142030000000000 O
   0.8624070000000000    0.0848770000000000    0.4032520000000000 O
   0.9993160000000000    0.8290850000000000    0.4427780000000000 O
   0.6245230000000001    0.9999740000000000    0.6823760000000000 O
   0.2757470000000000    0.4549190000000000    0.7616540000000001 O
   0.0435320000000000    0.3115340000000000    0.1858810000000000 O
   0.4354960000000000    0.8166000000000000    0.1988880000000000 O
   0.5645040000000000    0.1834000000000000    0.8011120000000000 O
   0.9564680000000000    0.6884660000000000    0.8141190000000000 O
   0.7242530000000000    0.5450810000000000    0.2383460000000000 O
   0.3754770000000000    0.0000260000000000    0.3176240000000000 O
   0.0006840000000000    0.1709150000000000    0.5572220000000000 O
   0.1375930000000000    0.9151230000000000    0.5967479999999999 O
   0.7685110000000001    0.3267930000000000    0.5857970000000000 O
   0.6134290000000000    0.4799790000000000    0.6299910000000000 O
   0.6114110000000000    0.9045980000000000    0.0915990000000000 O
   0.5200210000000000    0.3865710000000000    0.8700090000000000 O
   0.7767309999999999    0.5688980000000000    0.1120610000000000 O
   0.6732070000000000    0.2314890000000000    0.9142030000000000 O
   0.0848770000000000    0.8624070000000000    0.9032520000000001 O
   0.8290850000000000    0.9993160000000000    0.9427780000000000 O
   0.3115340000000000    0.0435320000000000    0.6858810000000000 O
   0.8166000000000000    0.4354960000000000    0.6988880000000000 O
   0.5722290000000000    0.9450910000000000    0.4330480000000000 O
   0.8033460000000000    0.5628710000000000    0.4152430000000000 O
   0.7262880000000000    0.7878770000000000    0.4092540000000000 O
   0.5450810000000000    0.7242530000000000    0.7383459999999999 O
   0.8642609999999999    0.8137510000000000    0.1748220000000000 O
   0.0000260000000000    0.3754770000000000    0.8176240000000000 O
   0.9045980000000000    0.6114110000000000    0.5915990000000000 O
   0.5688980000000000    0.7767309999999999    0.6120610000000000 O
   0.9377910000000000    0.7908570000000000    0.3227880000000000 O
   0.9450910000000000    0.5722290000000000    0.9330480000000000 O
   0.5628710000000000    0.8033460000000000    0.9152430000000000 O
   0.7878770000000000    0.7262880000000000    0.9092540000000000 O
   0.8137510000000000    0.8642609999999999    0.6748220000000000 O
   0.7908570000000000    0.9377910000000000    0.8227880000000000 O
