Li9 Bi3 P6 O24
1.0
   4.2701549999999999   -7.3961249999999996    0.0000000000000000
   4.2701549999999999    7.3961249999999996    0.0000000000000000
   0.0000000000000000    0.0000000000000000    7.5663570000000000
Li Bi P O
9 3 6 24
direct
   0.6543330000000001    0.9787690000000000    0.8704470000000000 Li
   0.9787690000000000    0.3244350000000000    0.1295530000000000 Li
   0.3333330000000000    0.6666670000000000    0.0161800000000000 Li
   0.3244350000000000    0.3456670000000000    0.8704470000000000 Li
   0.6755650000000000    0.6543330000000001    0.1295530000000000 Li
   0.0212310000000000    0.6755650000000000    0.8704470000000000 Li
   0.6666670000000000    0.3333330000000000    0.9838200000000000 Li
   0.3456670000000000    0.0212310000000000    0.1295530000000000 Li
   0.0000000000000000    0.0000000000000000    0.0000000000000000 Li
   0.0000000000000000    0.0000000000000000    0.5000000000000000 Bi
   0.3333330000000000    0.6666670000000000    0.5508340000000000 Bi
   0.6666670000000000    0.3333330000000000    0.4491660000000000 Bi
   0.3347060000000000    0.0258780000000000    0.7487100000000000 P
   0.9741220000000000    0.3088280000000000    0.7487100000000000 P
   0.0258780000000000    0.6911720000000000    0.2512900000000000 P
   0.3088280000000000    0.3347060000000000    0.2512900000000000 P
   0.6652940000000001    0.9741220000000000    0.2512900000000000 P
   0.6911720000000000    0.6652940000000001    0.7487100000000000 P
   0.5856290000000000    0.1051480000000000    0.2379870000000000 O
   0.2533400000000000    0.4231800000000000    0.1049280000000000 O
   0.1269960000000000    0.9150700000000001    0.7758980000000000 O
   0.1051480000000000    0.5195190000000000    0.7620130000000001 O
   0.2119250000000000    0.1269960000000000    0.2241020000000000 O
   0.4231800000000000    0.1698400000000000    0.8950720000000000 O
   0.1144390000000000    0.7447190000000000    0.4370760000000000 O
   0.8855610000000000    0.2552810000000000    0.5629240000000000 O
   0.8730040000000000    0.0849300000000000    0.2241020000000000 O
   0.3697190000000000    0.1144390000000000    0.5629240000000000 O
   0.4804810000000000    0.5856290000000000    0.7620130000000001 O
   0.9150700000000001    0.7880750000000000    0.2241020000000000 O
   0.7466600000000000    0.5768200000000000    0.8950720000000000 O
   0.7447190000000000    0.6302810000000000    0.5629240000000000 O
   0.8301600000000000    0.2533400000000000    0.8950720000000000 O
   0.8948520000000000    0.4804810000000000    0.2379870000000000 O
   0.5195190000000000    0.4143710000000000    0.2379870000000000 O
   0.4143710000000000    0.8948520000000000    0.7620130000000001 O
   0.0849300000000000    0.2119250000000000    0.7758980000000000 O
   0.6302810000000000    0.8855610000000000    0.4370760000000000 O
   0.5768200000000000    0.8301600000000000    0.1049280000000000 O
   0.7880750000000000    0.8730040000000000    0.7758980000000000 O
   0.1698400000000000    0.7466600000000000    0.1049280000000000 O
   0.2552810000000000    0.3697190000000000    0.4370760000000000 O
