Li4 Sn8 P12 O40
1.0
   7.8491359999999997    0.0000000000000000    0.0000000000000000
   0.0000000000000000   10.3080649999999991    0.0000000000000000
   0.0000000000000000    2.4568340000000002   12.0609450000000002
Li Sn P O
4 8 12 40
direct
   0.1539380000000000    0.3826840000000000    0.1599210000000000 Li
   0.6539380000000000    0.1173160000000000    0.8400790000000000 Li
   0.3460620000000000    0.8826840000000000    0.1599210000000000 Li
   0.8460620000000000    0.6173160000000000    0.8400790000000000 Li
   0.4928200000000000    0.4326630000000000    0.8720810000000000 Sn
   0.9928200000000000    0.0673370000000000    0.1279190000000000 Sn
   0.5071800000000000    0.5673370000000000    0.1279190000000000 Sn
   0.0071800000000000    0.9326630000000000    0.8720810000000000 Sn
   0.8944610000000000    0.1971610000000000    0.4247370000000000 Sn
   0.3944610000000000    0.3028390000000000    0.5752630000000000 Sn
   0.1055390000000000    0.8028390000000000    0.5752630000000000 Sn
   0.6055390000000000    0.6971610000000000    0.4247370000000000 Sn
   0.9360630000000000    0.5744140000000000    0.2675970000000000 P
   0.5639370000000000    0.0744140000000000    0.2675970000000000 P
   0.0947400000000000    0.6984980000000000    0.0545360000000000 P
   0.7087700000000000    0.4685840000000000    0.6513480000000000 P
   0.9052600000000000    0.3015020000000000    0.9454640000000000 P
   0.0639370000000000    0.4255860000000000    0.7324030000000000 P
   0.2087700000000000    0.0314160000000000    0.3486520000000000 P
   0.4360630000000000    0.9255860000000000    0.7324030000000000 P
   0.7912300000000000    0.9685840000000000    0.6513480000000000 P
   0.2912300000000000    0.5314160000000000    0.3486520000000000 P
   0.4052600000000000    0.1984980000000000    0.0545360000000000 P
   0.5947400000000000    0.8015020000000000    0.9454640000000000 P
   0.8120980000000000    0.9908150000000000    0.5252580000000000 O
   0.0696470000000000    0.1362280000000000    0.2953850000000000 O
   0.7041120000000000    0.5879219999999999    0.7046740000000000 O
   0.3505140000000000    0.3348300000000000    0.0709420000000000 O
   0.5628970000000000    0.1510900000000000    0.1399020000000000 O
   0.8871900000000000    0.3870200000000000    0.6803310000000000 O
   0.2287290000000000    0.5879120000000000    0.0835450000000000 O
   0.7958880000000000    0.0879220000000000    0.7046740000000000 O
   0.5768970000000000    0.9284600000000000    0.2703590000000000 O
   0.1879020000000000    0.0091850000000000    0.4747420000000000 O
   0.7712710000000000    0.4120880000000000    0.9164550000000000 O
   0.2958880000000000    0.4120780000000000    0.2953260000000000 O
   0.2989970000000000    0.8546300000000000    0.6807770000000000 O
   0.1128100000000000    0.6129800000000000    0.3196690000000000 O
   0.7010030000000000    0.1453700000000000    0.3192230000000000 O
   0.3871900000000000    0.1129800000000000    0.3196690000000000 O
   0.7989970000000000    0.6453700000000000    0.3192230000000000 O
   0.1494860000000000    0.8348300000000000    0.0709420000000000 O
   0.0628970000000000    0.3489100000000000    0.8600980000000000 O
   0.2010030000000000    0.3546300000000000    0.6807770000000000 O
   0.9231030000000000    0.4284600000000000    0.2703590000000000 O
   0.2041120000000000    0.9120780000000001    0.2953260000000000 O
   0.6128100000000000    0.8870200000000000    0.6803310000000000 O
   0.4371030000000000    0.8489100000000001    0.8600980000000000 O
   0.9839560000000001    0.2904720000000000    0.0618650000000000 O
   0.5160439999999999    0.7904720000000000    0.0618650000000000 O
   0.9371030000000000    0.6510899999999999    0.1399020000000000 O
   0.0768970000000000    0.5715400000000000    0.7296410000000000 O
   0.2712710000000000    0.0879120000000000    0.0835450000000000 O
   0.6879020000000000    0.4908150000000000    0.5252580000000000 O
   0.4231030000000000    0.0715400000000000    0.7296410000000000 O
   0.5696470000000000    0.3637720000000000    0.7046150000000000 O
   0.0160440000000000    0.7095280000000000    0.9381350000000001 O
   0.3120980000000000    0.5091850000000000    0.4747420000000000 O
   0.6494860000000000    0.6651700000000000    0.9290580000000001 O
   0.9303530000000000    0.8637720000000000    0.7046150000000000 O
   0.4839560000000000    0.2095280000000000    0.9381350000000001 O
   0.4303530000000000    0.6362280000000000    0.2953850000000000 O
   0.8505140000000000    0.1651700000000000    0.9290580000000001 O
   0.7287290000000000    0.9120880000000000    0.9164550000000000 O
