ALGO = Fast
EDIFF = 0.0010500000000000002
ENCUT = 520
IBRION = 2
ISIF = 3
ISMEAR = -5
ISPIN = 2
LASPH = True
LORBIT = 11
LREAL = Auto
LWAVE = False
MAGMOM = 1*0.0 1*-0.006 2*-0.0 2*-0.001 2*-0.0 1*0.004 1*0.002 1*0.003 1*0.008 2*0.002 1*0.042 1*0.017 1*0.009 1*0.018 1*0.005 1*0.001 1*1.469
NELM = 100
NSW = 99
PREC = Accurate
SIGMA = 0.05
