pymatgen with grid density = 1084 / number of atoms
0
Gamma
5 3 2
