pymatgen with grid density = 1203 / number of atoms
0
Gamma
2 5 3
