Li12 Zn6 Sn18 O48
1.0
   5.3334060000000001   -9.2469900000000003    0.0000000000000000
   5.3334060000000001    9.2469900000000003    0.0000000000000000
   0.0000000000000000    0.0000000000000000   10.0551610000000000
Li Zn Sn O
12 6 18 48
direct
   0.3351170000000000    0.6970610000000000    0.7200700000000000 Li
   0.3340130000000000    0.8337320000000000    0.4916040000000000 Li
   0.6648830000000000    0.3029390000000000    0.2200700000000000 Li
   0.8337320000000000    0.3340130000000000    0.4916040000000000 Li
   0.1659930000000000    0.1659930000000000    0.9896900000000000 Li
   0.3029390000000000    0.6648830000000000    0.2200700000000000 Li
   0.6659870000000000    0.1662680000000000    0.9916040000000000 Li
   0.1662680000000000    0.6659870000000000    0.9916040000000000 Li
   0.9783420000000000    0.9783420000000000    0.7161360000000000 Li
   0.6970610000000000    0.3351170000000000    0.7200700000000000 Li
   0.0216580000000000    0.0216580000000000    0.2161360000000000 Li
   0.8340070000000001    0.8340070000000001    0.4896900000000000 Li
   0.6666000000000000    0.0003500000000000    0.3052770000000000 Zn
   0.9996500000000000    0.3334000000000000    0.8052770000000000 Zn
   0.6666270000000000    0.6666270000000000    0.8091540000000000 Zn
   0.3333730000000000    0.3333730000000000    0.3091540000000000 Zn
   0.3334000000000000    0.9996500000000000    0.8052770000000000 Zn
   0.0003500000000000    0.6666000000000000    0.3052770000000000 Zn
   0.1612930000000000    0.5059610000000000    0.4978410000000000 Sn
   0.1591090000000000    0.9845490000000000    0.4964070000000000 Sn
   0.5084300000000000    0.6811520000000000    0.4963260000000000 Sn
   0.9845490000000000    0.1591090000000000    0.4964070000000000 Sn
   0.6811520000000000    0.5084300000000000    0.4963260000000000 Sn
   0.5059610000000000    0.1612930000000000    0.4978410000000000 Sn
   0.3188480000000000    0.4915700000000000    0.9963260000000000 Sn
   0.0038240000000000    0.6668680000000000    0.7169970000000000 Sn
   0.6707240000000000    0.6707240000000000    0.2158320000000000 Sn
   0.8387070000000000    0.4940390000000000    0.9978410000000000 Sn
   0.0154510000000000    0.8408910000000001    0.9964070000000000 Sn
   0.6668680000000000    0.0038240000000000    0.7169970000000000 Sn
   0.9961760000000000    0.3331320000000000    0.2169970000000000 Sn
   0.3331320000000000    0.9961760000000000    0.2169970000000000 Sn
   0.4940390000000000    0.8387070000000000    0.9978410000000000 Sn
   0.3292760000000000    0.3292760000000000    0.7158320000000000 Sn
   0.4915700000000000    0.3188480000000000    0.9963260000000000 Sn
   0.8408910000000001    0.0154510000000000    0.9964070000000000 Sn
   0.4968430000000000    0.1677420000000000    0.1163000000000000 O
   0.3352780000000000    0.6657350000000000    0.8994050000000000 O
   0.8329710000000000    0.0004410000000000    0.6155230000000000 O
   0.8322580000000001    0.5031570000000000    0.6163000000000000 O
   0.8420150000000000    0.8420150000000000    0.1123510000000000 O
   0.6631960000000000    0.6631960000000000    0.6069600000000001 O
   0.3368040000000000    0.3368040000000000    0.1069600000000000 O
   0.6647260000000000    0.1691090000000000    0.6172140000000000 O
   0.3314470000000000    0.1503030000000000    0.3706060000000000 O
   0.5178420000000000    0.5178420000000000    0.3676320000000000 O
   0.6668590000000000    0.9969110000000000    0.1034300000000000 O
   0.6657350000000000    0.3352780000000000    0.8994050000000000 O
   0.1691090000000000    0.6647260000000000    0.6172140000000000 O
   0.8496970000000000    0.6685530000000000    0.8706060000000000 O
   0.1670290000000000    0.9995590000000000    0.1155230000000000 O
   0.9969110000000000    0.6668590000000000    0.1034300000000000 O
   0.3342650000000000    0.6647220000000000    0.3994050000000000 O
   0.6647220000000000    0.3342650000000000    0.3994050000000000 O
   0.9896500000000000    0.5089129999999999    0.8584150000000000 O
   0.5089129999999999    0.9896500000000000    0.8584150000000000 O
   0.8207530000000000    0.1506630000000000    0.8596240000000001 O
   0.0004410000000000    0.8329710000000000    0.6155230000000000 O
   0.4821580000000000    0.4821580000000000    0.8676320000000000 O
   0.1792470000000000    0.8493370000000000    0.3596240000000000 O
   0.6611480000000000    0.8154020000000000    0.3562760000000000 O
   0.1503030000000000    0.3314470000000000    0.3706060000000000 O
   0.3331410000000000    0.0030890000000000    0.6034300000000000 O
   0.4955930000000000    0.6645310000000000    0.1098580000000000 O
   0.0030890000000000    0.3331410000000000    0.6034300000000000 O
   0.1677420000000000    0.4968430000000000    0.1163000000000000 O
   0.3388520000000000    0.1845980000000000    0.8562760000000000 O
   0.5031570000000000    0.8322580000000001    0.6163000000000000 O
   0.9976950000000000    0.9976950000000000    0.8978950000000000 O
   0.9995590000000000    0.1670290000000000    0.1155230000000000 O
   0.0023050000000000    0.0023050000000000    0.3978950000000000 O
   0.1579850000000000    0.1579850000000000    0.6123510000000000 O
   0.1506630000000000    0.8207530000000000    0.8596240000000001 O
   0.6685530000000000    0.8496970000000000    0.8706060000000000 O
   0.1845980000000000    0.3388520000000000    0.8562760000000000 O
   0.8154020000000000    0.6611480000000000    0.3562760000000000 O
   0.8308910000000000    0.3352740000000000    0.1172140000000000 O
   0.0103500000000000    0.4910870000000000    0.3584150000000000 O
   0.3354690000000000    0.5044070000000000    0.6098580000000000 O
   0.4910870000000000    0.0103500000000000    0.3584150000000000 O
   0.3352740000000000    0.8308910000000000    0.1172140000000000 O
   0.8493370000000000    0.1792470000000000    0.3596240000000000 O
   0.6645310000000000    0.4955930000000000    0.1098580000000000 O
   0.5044070000000000    0.3354690000000000    0.6098580000000000 O
