Li8 Nd4 N20 O60
1.0
   9.0432609999999993    0.0000000000000000    0.0000000000000000
   0.0000000000000000   10.6222309999999993    0.0000000000000000
   0.0000000000000000    0.0000000000000000   11.8415040000000005
Li Nd N O
8 4 20 60
direct
   0.1168830000000000    0.2281090000000000    0.3210440000000000 Li
   0.8831170000000000    0.7718910000000000    0.6789560000000000 Li
   0.8831170000000000    0.7718910000000000    0.3210440000000000 Li
   0.3831170000000000    0.7281090000000000    0.1789560000000000 Li
   0.1168830000000000    0.2281090000000000    0.6789560000000000 Li
   0.6168830000000000    0.2718910000000000    0.8210440000000000 Li
   0.6168830000000000    0.2718910000000000    0.1789560000000000 Li
   0.3831170000000000    0.7281090000000000    0.8210440000000000 Li
   0.0000000000000000    0.0000000000000000    0.0000000000000000 Nd
   0.5000000000000000    0.5000000000000000    0.5000000000000000 Nd
   0.0000000000000000    0.5000000000000000    0.0000000000000000 Nd
   0.5000000000000000    0.0000000000000000    0.5000000000000000 Nd
   0.0000000000000000    0.0000000000000000    0.2600800000000000 N
   0.0000000000000000    0.0000000000000000    0.7399200000000000 N
   0.5000000000000000    0.5000000000000000    0.2399200000000000 N
   0.5000000000000000    0.5000000000000000    0.7600800000000000 N
   0.1747560000000000    0.2491010000000000    0.0000000000000000 N
   0.8252440000000000    0.7508990000000000    0.0000000000000000 N
   0.3252440000000000    0.7491010000000000    0.5000000000000000 N
   0.6747560000000000    0.2508990000000000    0.5000000000000000 N
   0.3999740000000000    0.1549450000000000    0.2913570000000000 N
   0.6000259999999999    0.8450550000000000    0.7086430000000000 N
   0.6000259999999999    0.8450550000000000    0.2913570000000000 N
   0.1000260000000000    0.6549450000000000    0.2086430000000000 N
   0.3999740000000000    0.1549450000000000    0.7086430000000000 N
   0.8999740000000001    0.3450550000000000    0.7913570000000000 N
   0.8999740000000001    0.3450550000000000    0.2086430000000000 N
   0.1000260000000000    0.6549450000000000    0.7913570000000000 N
   0.7063650000000000    0.1468330000000000    0.0000000000000000 N
   0.2936350000000000    0.8531670000000000    0.0000000000000000 N
   0.7936350000000000    0.6468330000000000    0.5000000000000000 N
   0.2063650000000000    0.3531670000000000    0.5000000000000000 N
   0.3119560000000000    0.1124440000000000    0.3681040000000000 O
   0.6880440000000000    0.8875560000000000    0.6318960000000000 O
   0.6880440000000000    0.8875560000000000    0.3681040000000000 O
   0.1880440000000000    0.6124440000000000    0.1318960000000000 O
   0.3119560000000000    0.1124440000000000    0.6318960000000000 O
   0.8119560000000000    0.3875560000000000    0.8681040000000000 O
   0.8119560000000000    0.3875560000000000    0.1318960000000000 O
   0.1880440000000000    0.6124440000000000    0.8681040000000000 O
   0.0304990000000000    0.2472030000000000    0.0000000000000000 O
   0.9695009999999999    0.7527970000000000    0.0000000000000000 O
   0.4695010000000000    0.7472030000000000    0.5000000000000000 O
   0.5304990000000001    0.2527970000000000    0.5000000000000000 O
   0.0364870000000000    0.3743540000000000    0.2013690000000000 O
   0.9635130000000000    0.6256460000000000    0.7986310000000000 O
   0.9635130000000000    0.6256460000000000    0.2013690000000000 O
   0.4635130000000000    0.8743540000000000    0.2986310000000000 O
   0.0364870000000000    0.3743540000000000    0.7986310000000000 O
   0.5364870000000000    0.1256460000000000    0.7013690000000000 O
   0.5364870000000000    0.1256460000000000    0.2986310000000000 O
   0.4635130000000000    0.8743540000000000    0.7013690000000000 O
   0.2405720000000000    0.1459390000000000    0.0000000000000000 O
   0.7594280000000000    0.8540610000000000    0.0000000000000000 O
   0.2594280000000000    0.6459390000000000    0.5000000000000000 O
   0.7405720000000000    0.3540610000000000    0.5000000000000000 O
   0.5970190000000000    0.2199680000000000    0.0000000000000000 O
   0.4029810000000000    0.7800319999999999    0.0000000000000000 O
   0.9029810000000000    0.7199680000000001    0.5000000000000000 O
   0.0970190000000000    0.2800320000000000    0.5000000000000000 O
   0.0000000000000000    0.0000000000000000    0.3636350000000000 O
   0.0000000000000000    0.0000000000000000    0.6363650000000000 O
   0.5000000000000000    0.5000000000000000    0.1363650000000000 O
   0.5000000000000000    0.5000000000000000    0.8636350000000000 O
   0.2375400000000000    0.3541700000000000    0.0000000000000000 O
   0.7624600000000000    0.6458300000000000    0.0000000000000000 O
   0.2624600000000000    0.8541700000000000    0.5000000000000000 O
   0.7375400000000000    0.1458300000000000    0.5000000000000000 O
   0.2642670000000000    0.3894010000000000    0.4076370000000000 O
   0.7357330000000000    0.6105990000000000    0.5923630000000000 O
   0.7357330000000000    0.6105990000000000    0.4076370000000000 O
   0.2357330000000000    0.8894010000000000    0.0923630000000000 O
   0.2642670000000000    0.3894010000000000    0.5923630000000000 O
   0.7642670000000000    0.1105990000000000    0.9076370000000000 O
   0.7642670000000000    0.1105990000000000    0.0923630000000000 O
   0.2357330000000000    0.8894010000000000    0.9076370000000000 O
   0.0576950000000000    0.0900540000000000    0.2019570000000000 O
   0.9423049999999999    0.9099460000000000    0.7980429999999999 O
   0.9423049999999999    0.9099460000000000    0.2019570000000000 O
   0.4423050000000000    0.5900540000000000    0.2980430000000000 O
   0.0576950000000000    0.0900540000000000    0.7980429999999999 O
   0.5576950000000001    0.4099460000000000    0.7019570000000001 O
   0.5576950000000001    0.4099460000000000    0.2980430000000000 O
   0.4423050000000000    0.5900540000000000    0.7019570000000001 O
   0.3535260000000000    0.2242420000000000    0.2151440000000000 O
   0.6464740000000000    0.7757579999999999    0.7848560000000000 O
   0.6464740000000000    0.7757579999999999    0.2151440000000000 O
   0.1464740000000000    0.7242420000000001    0.2848560000000000 O
   0.3535260000000000    0.2242420000000000    0.7848560000000000 O
   0.8535260000000000    0.2757580000000000    0.7151440000000000 O
   0.8535260000000000    0.2757580000000000    0.2848560000000000 O
   0.1464740000000000    0.7242420000000001    0.7151440000000000 O
