pymatgen with grid density = 1249 / number of atoms
0
Gamma
5 3 2
