Li2 Al2 Si4 H2 O14
1.0
  -0.0107100000000000   -5.0106640000000002    0.0322820000000000
   0.0022370000000000   -0.0022770000000000   -7.6863630000000001
   7.9183579999999996   -0.0223990000000000   -3.6895910000000001
Li Al Si H O
2 2 4 2 14
direct
   0.8662160000000000    0.8286510000000000    0.4007330000000000 Li
   0.3757240000000000    0.1159600000000000    0.7814710000000000 Li
   0.3730870000000000    0.8643480000000000    0.1990120000000000 Al
   0.8535960000000000    0.8937290000000000    0.7167150000000000 Al
   0.3546500000000000    0.0226710000000000    0.4761110000000000 Si
   0.8744060000000000    0.0509570000000000    0.9917440000000000 Si
   0.4116810000000000    0.4471610000000000    0.2012030000000000 Si
   0.9101510000000000    0.4614950000000000    0.9877740000000000 Si
   0.8546160000000000    0.4487530000000000    0.4651900000000000 H
   0.5681160000000000    0.5048560000000000    0.7092550000000000 H
   0.0290160000000000    0.9224740000000000    0.1693780000000000 O
   0.4900760000000000    0.9151470000000000    0.3684890000000000 O
   0.4218530000000000    0.6225550000000000    0.2556290000000000 O
   0.5530890000000001    0.0056740000000000    0.0112160000000000 O
   0.5416350000000000    0.0029670000000000    0.6367040000000000 O
   0.9284790000000001    0.2785970000000000    0.9392430000000001 O
   0.3086470000000000    0.2522930000000000    0.3591780000000000 O
   0.0601530000000000    0.9290760000000000    0.5425650000000000 O
   0.2109450000000000    0.4984220000000000    0.0401390000000000 O
   0.9960500000000000    0.0101030000000000    0.8354270000000000 O
   0.8010860000000000    0.6460390000000000    0.8271160000000000 O
   0.7110880000000001    0.4051520000000000    0.1503700000000000 O
   0.8549980000000000    0.5365280000000000    0.5204420000000000 O
   0.5444320000000000    0.4099910000000000    0.6601550000000000 O
