Li6 Si6 Bi6 O24
1.0
   5.3900730000000001   -6.7975630000000002    0.0000000000000000
   5.3900730000000001    6.7975630000000002    0.0000000000000000
  -3.1825120000000000    0.0000000000000000    8.0704010000000004
Li Si Bi O
6 6 6 24
direct
   0.4401470000000000    0.0357820000000000    0.1893940000000000 Li
   0.8106060000000000    0.5598530000000000    0.9642180000000000 Li
   0.9642180000000000    0.8106060000000000    0.5598530000000000 Li
   0.0357820000000000    0.1893940000000000    0.4401470000000000 Li
   0.1893940000000000    0.4401470000000000    0.0357820000000000 Li
   0.5598530000000000    0.9642180000000000    0.8106060000000000 Li
   0.9129400000000000    0.1450670000000000    0.7458040000000000 Si
   0.8549330000000001    0.2541960000000000    0.0870600000000000 Si
   0.2541960000000000    0.0870600000000000    0.8549330000000001 Si
   0.7458040000000000    0.9129400000000000    0.1450670000000000 Si
   0.1450670000000000    0.7458040000000000    0.9129400000000000 Si
   0.0870600000000000    0.8549330000000001    0.2541960000000000 Si
   0.8114690000000000    0.4561670000000000    0.5556219999999999 Bi
   0.4443780000000000    0.1885310000000000    0.5438330000000000 Bi
   0.5438330000000000    0.4443780000000000    0.1885310000000000 Bi
   0.4561670000000000    0.5556219999999999    0.8114690000000000 Bi
   0.5556219999999999    0.8114690000000000    0.4561670000000000 Bi
   0.1885310000000000    0.5438330000000000    0.4443780000000000 Bi
   0.9549290000000000    0.2616700000000000    0.9420320000000000 O
   0.7383300000000000    0.0579680000000000    0.0450710000000000 O
   0.9299950000000000    0.2573310000000000    0.6206880000000000 O
   0.7426690000000000    0.3793120000000000    0.0700050000000000 O
   0.0104110000000000    0.6934380000000000    0.7320540000000000 O
   0.5578030000000000    0.2799180000000000    0.3347290000000000 O
   0.3793120000000000    0.0700050000000000    0.7426690000000000 O
   0.6652709999999999    0.4421970000000000    0.7200820000000000 O
   0.2679460000000000    0.9895890000000001    0.3065620000000000 O
   0.3065620000000000    0.2679460000000000    0.9895890000000001 O
   0.7200820000000000    0.6652709999999999    0.4421970000000000 O
   0.0579680000000000    0.0450710000000000    0.7383300000000000 O
   0.9420320000000000    0.9549290000000000    0.2616700000000000 O
   0.2799180000000000    0.3347290000000000    0.5578030000000000 O
   0.6934380000000000    0.7320540000000000    0.0104110000000000 O
   0.7320540000000000    0.0104110000000000    0.6934380000000000 O
   0.3347290000000000    0.5578030000000000    0.2799180000000000 O
   0.6206880000000000    0.9299950000000000    0.2573310000000000 O
   0.4421970000000000    0.7200820000000000    0.6652709999999999 O
   0.9895890000000001    0.3065620000000000    0.2679460000000000 O
   0.2573310000000000    0.6206880000000000    0.9299950000000000 O
   0.0700050000000000    0.7426690000000000    0.3793120000000000 O
   0.2616700000000000    0.9420320000000000    0.9549290000000000 O
   0.0450710000000000    0.7383300000000000    0.0579680000000000 O
