Li6 Bi2 B4 O12
1.0
   5.1063590000000003    0.0000000000000000    0.0000000000000000
   0.2032220000000000    7.1159569999999999    0.0000000000000000
   0.3409760000000000    2.8334320000000002    7.8030910000000002
Li Bi B O
6 2 4 12
direct
   0.1784630000000000    0.0734730000000000    0.0800290000000000 Li
   0.3138230000000000    0.9489680000000000    0.7370630000000000 Li
   0.3239950000000000    0.2380200000000000    0.3737160000000000 Li
   0.6760050000000000    0.7619800000000000    0.6262840000000000 Li
   0.6861770000000000    0.0510320000000000    0.2629370000000000 Li
   0.8215370000000000    0.9265270000000000    0.9199710000000000 Li
   0.1679150000000000    0.4359870000000000    0.7130450000000000 Bi
   0.8320850000000000    0.5640130000000000    0.2869550000000000 Bi
   0.1763940000000000    0.8599730000000000    0.4345520000000000 B
   0.3374880000000000    0.6885940000000000    0.0813710000000000 B
   0.6625120000000000    0.3114060000000000    0.9186290000000000 B
   0.8236059999999999    0.1400270000000000    0.5654480000000000 B
   0.0827090000000000    0.1943300000000000    0.5821900000000000 O
   0.2477720000000000    0.5225490000000000    0.2221320000000000 O
   0.1701740000000000    0.8288540000000000    0.9821010000000000 O
   0.2946460000000000    0.7645710000000000    0.5935420000000000 O
   0.3085740000000000    0.9992960000000000    0.3046830000000000 O
   0.3917120000000000    0.2930050000000000    0.9461889999999999 O
   0.6082880000000001    0.7069950000000000    0.0538110000000000 O
   0.6914260000000000    0.0007040000000000    0.6953170000000000 O
   0.7053540000000000    0.2354290000000000    0.4064580000000000 O
   0.8298260000000000    0.1711460000000000    0.0178990000000000 O
   0.7522280000000000    0.4774510000000000    0.7778680000000000 O
   0.9172910000000000    0.8056700000000000    0.4178100000000000 O
