Li1 Sm4 H4 O8
1.0
   5.3240780000000001    0.1471390000000000    0.0000000000000000
   0.3151320000000000   11.1850520000000007    0.0000000000000000
   0.0000000000000000    0.0000000000000000    3.6213220000000002
Li Sm H O
1 4 4 8
direct
   0.5809080000000000    0.9949350000000000    0.2500000000000000 Li
   0.0902050000000000    0.8429990000000001    0.2500000000000000 Sm
   0.3971170000000000    0.3563580000000000    0.2500000000000000 Sm
   0.6134670000000000    0.6402940000000000    0.7500000000000000 Sm
   0.9028150000000000    0.1552790000000000    0.7500000000000000 Sm
   0.1552680000000000    0.5974840000000000    0.2500000000000000 H
   0.3175550000000000    0.1134330000000000    0.2500000000000000 H
   0.6275930000000000    0.8912930000000000    0.7500000000000000 H
   0.8640570000000000    0.3951030000000000    0.7500000000000000 H
   0.1737240000000000    0.0594540000000000    0.2500000000000000 O
   0.1542370000000000    0.3104820000000000    0.7500000000000000 O
   0.3840880000000000    0.8168750000000000    0.7500000000000000 O
   0.3380030000000000    0.5692490000000000    0.2500000000000000 O
   0.6781910000000000    0.4142540000000000    0.7500000000000000 O
   0.6264480000000000    0.1715740000000000    0.2500000000000000 O
   0.8651120000000000    0.6783090000000001    0.2500000000000000 O
   0.7812120000000000    0.9450060000000000    0.7500000000000000 O
