Li4 Sc2 P4 H2 O16
1.0
   8.3012020000000000    0.0000000000000000    0.0000000000000000
   0.0000000000000000    4.9130300000000000    0.0000000000000000
   0.0000000000000000    1.8758690000000000    7.5293419999999998
Li Sc P H O
4 2 4 2 16
direct
   0.6332950000000001    0.3649870000000000    0.0927420000000000 Li
   0.8645820000000000    0.8548210000000001    0.5871410000000000 Li
   0.3645820000000000    0.1451790000000000    0.4128590000000000 Li
   0.1332950000000000    0.6350130000000000    0.9072580000000000 Li
   0.5004010000000000    0.7512610000000000    0.7436400000000000 Sc
   0.0004010000000000    0.2487390000000000    0.2563600000000000 Sc
   0.8433760000000000    0.8809709999999999    0.9846700000000000 P
   0.6501860000000000    0.3870170000000000    0.4744100000000000 P
   0.1501860000000000    0.6129829999999999    0.5255900000000000 P
   0.3433760000000000    0.1190290000000000    0.0153300000000000 P
   0.9795160000000001    0.2098010000000000    0.7649650000000000 H
   0.4795160000000000    0.7901990000000000    0.2350350000000000 H
   0.8225990000000000    0.1091330000000000    0.0882550000000000 O
   0.6756840000000000    0.6066440000000000    0.5863850000000000 O
   0.1756840000000000    0.3933560000000000    0.4136150000000000 O
   0.3225990000000000    0.8908670000000000    0.9117450000000000 O
   0.9323680000000000    0.0063890000000000    0.7999080000000000 O
   0.5601410000000000    0.5082740000000000    0.2986340000000000 O
   0.0601410000000000    0.4917260000000000    0.7013660000000000 O
   0.4323680000000000    0.9936110000000000    0.2000920000000000 O
   0.6832810000000000    0.7608880000000000    0.9358850000000000 O
   0.8149510000000000    0.2638120000000000    0.4348170000000000 O
   0.3149510000000000    0.7361880000000000    0.5651830000000000 O
   0.1832810000000000    0.2391120000000000    0.0641150000000000 O
   0.9535979999999999    0.6428890000000000    0.0850800000000000 O
   0.5450220000000000    0.1436700000000000    0.5849990000000000 O
   0.0450220000000000    0.8563300000000000    0.4150010000000000 O
   0.4535980000000000    0.3571110000000000    0.9149200000000000 O
