K4 Na4 Li8 S8 O32
1.0
   4.9985679999999997    0.0000000000000000    0.0000000000000000
   0.0000000000000000    7.8812110000000004    0.0000000000000000
   0.0000000000000000    0.0000000000000000   19.3322670000000016
K Na Li S O
4 4 8 8 32
direct
   0.4976020000000000    0.9434020000000000    0.5727270000000000 K
   0.9976020000000000    0.5565980000000000    0.4272730000000000 K
   0.5023980000000000    0.4434020000000000    0.9272730000000000 K
   0.0023980000000000    0.0565980000000000    0.0727270000000000 K
   0.0152230000000000    0.2492820000000000    0.2761820000000000 Na
   0.9847770000000000    0.7492820000000000    0.2238180000000000 Na
   0.4847770000000000    0.7507180000000000    0.7761820000000000 Na
   0.5152230000000000    0.2507180000000000    0.7238180000000000 Na
   0.0047600000000000    0.7437150000000000    0.9111669999999999 Li
   0.5047600000000000    0.7562850000000000    0.0888330000000000 Li
   0.9952400000000000    0.2437150000000000    0.5888330000000001 Li
   0.4952400000000000    0.2562850000000000    0.4111670000000000 Li
   0.0356570000000000    0.0993280000000000    0.8594060000000000 Li
   0.5356570000000000    0.4006720000000000    0.1405940000000000 Li
   0.9643430000000000    0.5993280000000000    0.6405940000000000 Li
   0.4643430000000000    0.9006720000000000    0.3594060000000000 Li
   0.9672430000000000    0.4678810000000000    0.7931940000000000 S
   0.5327570000000000    0.5321190000000000    0.2931940000000000 S
   0.4672430000000000    0.0321190000000000    0.2068060000000000 S
   0.0327570000000000    0.9678810000000000    0.7068060000000000 S
   0.0079210000000000    0.5481840000000000    0.0592870000000000 S
   0.5079210000000000    0.9518160000000000    0.9407130000000000 S
   0.9920790000000000    0.0481840000000000    0.4407130000000000 S
   0.4920790000000000    0.4518160000000000    0.5592870000000000 S
   0.1996460000000000    0.4616070000000000    0.5770060000000000 O
   0.6996460000000000    0.0383930000000000    0.4229940000000000 O
   0.8003540000000000    0.9616070000000000    0.9229940000000000 O
   0.3003540000000000    0.5383930000000000    0.0770060000000000 O
   0.5184060000000000    0.4336710000000000    0.4828580000000000 O
   0.0184060000000000    0.0663290000000000    0.5171420000000000 O
   0.4815940000000000    0.9336710000000000    0.0171420000000000 O
   0.9815940000000000    0.5663290000000000    0.9828580000000000 O
   0.6308980000000000    0.6091090000000000    0.5818570000000000 O
   0.1308980000000000    0.8908910000000000    0.4181430000000000 O
   0.3691020000000000    0.1091090000000000    0.9181430000000000 O
   0.8691020000000000    0.3908910000000000    0.0818570000000000 O
   0.6103350000000000    0.3010190000000000    0.5946890000000000 O
   0.1103350000000000    0.1989810000000000    0.4053110000000000 O
   0.3896650000000000    0.8010190000000000    0.9053110000000000 O
   0.8896650000000000    0.6989810000000000    0.0946890000000000 O
   0.6317390000000001    0.3808420000000000    0.3323470000000000 O
   0.1317390000000000    0.1191580000000000    0.6676530000000001 O
   0.3682610000000000    0.8808420000000000    0.1676530000000000 O
   0.8682609999999999    0.6191580000000000    0.8323469999999999 O
   0.8713520000000000    0.3106820000000000    0.8287500000000000 O
   0.3713520000000000    0.1893180000000000    0.1712500000000000 O
   0.1286480000000000    0.8106820000000000    0.6712500000000000 O
   0.6286480000000000    0.6893180000000000    0.3287500000000000 O
   0.2650980000000000    0.4701200000000000    0.7902400000000001 O
   0.7650979999999999    0.0298800000000000    0.2097600000000000 O
   0.7349020000000001    0.9701200000000000    0.7097599999999999 O
   0.2349020000000000    0.5298800000000000    0.2902400000000000 O
   0.8497550000000000    0.4728240000000000    0.7223730000000000 O
   0.3497550000000000    0.0271760000000000    0.2776270000000000 O
   0.1502450000000000    0.9728240000000000    0.7776270000000000 O
   0.6502450000000000    0.5271760000000000    0.2223730000000000 O
