ALGO = Fast
EDIFF = 0.0024000000000000002
ENCUT = 520
IBRION = 2
ISIF = 3
ISMEAR = -5
ISPIN = 2
LASPH = True
LMAXMIX = 6
LORBIT = 11
LREAL = Auto
LWAVE = False
MAGMOM = 4*0.001 2*6.872 2*6.879 1*6.87 1*6.879 1*6.872 2*6.87 1*6.872 1*6.87 1*6.879 4*-0.001 1*-0.013 3*-0.017 1*-0.013 3*-0.017 1*-0.013 1*-0.017 1*-0.013 1*-0.017 1*-0.011 1*-0.014 4*-0.024 1*-0.011 1*-0.024 2*-0.014 1*-0.024 1*-0.014 2*-0.011 2*-0.024
NELM = 100
NSW = 99
PREC = Accurate
SIGMA = 0.05
