pymatgen with grid density = 834 / number of atoms
0
Gamma
3 2 1
