Li4 Nd4 C16 O40
1.0
   7.5788620000000000    0.0000000000000000    0.0000000000000000
   0.0000000000000000    9.6148550000000004    0.0000000000000000
   0.0000000000000000    3.2180659999999999   12.2847229999999996
Li Nd C O
4 4 16 40
direct
   0.3077710000000000    0.5889650000000000    0.2999430000000000 Li
   0.6922290000000000    0.4110350000000000    0.7000570000000000 Li
   0.3077710000000000    0.9110350000000000    0.7000570000000000 Li
   0.6922290000000000    0.0889650000000000    0.2999430000000000 Li
   0.7768119999999999    0.7132440000000000    0.2549100000000000 Nd
   0.2231880000000000    0.2867560000000000    0.7450900000000000 Nd
   0.7768119999999999    0.7867560000000000    0.7450900000000000 Nd
   0.2231880000000000    0.2132440000000000    0.2549100000000000 Nd
   0.8308250000000000    0.3685900000000000    0.2778810000000000 C
   0.1691750000000000    0.6314100000000000    0.7221190000000000 C
   0.8308250000000000    0.1314100000000000    0.7221190000000000 C
   0.1691750000000000    0.8685900000000000    0.2778810000000000 C
   0.8758200000000000    0.7500000000000000    0.0000000000000000 C
   0.1241800000000000    0.2500000000000000    0.0000000000000000 C
   0.6703740000000000    0.7500000000000000    0.0000000000000000 C
   0.3296260000000000    0.2500000000000000    0.0000000000000000 C
   0.3722780000000000    0.8810580000000000    0.2858710000000000 C
   0.6277220000000000    0.1189420000000000    0.7141290000000000 C
   0.3722780000000000    0.6189420000000000    0.7141290000000000 C
   0.6277220000000000    0.3810580000000000    0.2858710000000000 C
   0.7771130000000001    0.8335690000000000    0.4786450000000000 C
   0.2228870000000000    0.1664310000000000    0.5213550000000000 C
   0.7771130000000001    0.6664310000000000    0.5213550000000000 C
   0.2228870000000000    0.3335690000000000    0.4786450000000000 C
   0.5664700000000000    0.5057690000000000    0.2784540000000000 O
   0.4335300000000000    0.4942310000000000    0.7215460000000000 O
   0.5664700000000000    0.9942310000000000    0.7215460000000000 O
   0.4335300000000000    0.0057690000000000    0.2784540000000000 O
   0.9505350000000000    0.7621990000000000    0.0863160000000000 O
   0.0494650000000000    0.2378010000000000    0.9136840000000001 O
   0.9505350000000000    0.7378010000000000    0.9136840000000001 O
   0.0494650000000000    0.2621990000000000    0.0863160000000000 O
   0.5954810000000000    0.7486680000000000    0.0893390000000000 O
   0.4045190000000000    0.2513320000000000    0.9106610000000001 O
   0.5954810000000000    0.7513320000000000    0.9106610000000001 O
   0.4045190000000000    0.2486680000000000    0.0893390000000000 O
   0.7710690000000000    0.8839600000000000    0.3756050000000000 O
   0.2289310000000000    0.1160400000000000    0.6243950000000000 O
   0.7710690000000000    0.6160400000000000    0.6243950000000000 O
   0.2289310000000000    0.3839600000000000    0.3756050000000000 O
   0.2542990000000000    0.5243350000000000    0.1217490000000000 O
   0.7457009999999999    0.4756650000000000    0.8782510000000000 O
   0.2542990000000000    0.9756650000000000    0.8782510000000000 O
   0.7457009999999999    0.0243350000000000    0.1217490000000000 O
   0.7780620000000000    0.9067330000000000    0.5479610000000000 O
   0.2219380000000000    0.0932670000000000    0.4520390000000000 O
   0.7780620000000000    0.5932670000000000    0.4520390000000000 O
   0.2219380000000000    0.4067330000000000    0.5479610000000000 O
   0.4598330000000000    0.7663100000000000    0.2960990000000000 O
   0.5401670000000000    0.2336900000000000    0.7039010000000000 O
   0.4598330000000000    0.7336900000000000    0.7039010000000000 O
   0.5401670000000000    0.2663100000000000    0.2960990000000000 O
   0.8951000000000000    0.2430160000000000    0.2935110000000000 O
   0.1049000000000000    0.7569840000000000    0.7064890000000000 O
   0.8951000000000000    0.2569840000000000    0.7064890000000000 O
   0.1049000000000000    0.7430160000000000    0.2935110000000000 O
   0.7333400000000000    0.4239260000000000    0.9768410000000000 O
   0.2666600000000000    0.5760740000000000    0.0231590000000000 O
   0.7333400000000000    0.0760740000000000    0.0231590000000000 O
   0.2666600000000000    0.9239260000000000    0.9768410000000000 O
   0.9158790000000000    0.4853990000000000    0.2535940000000000 O
   0.0841210000000000    0.5146010000000000    0.7464060000000000 O
   0.9158790000000000    0.0146010000000000    0.7464060000000000 O
   0.0841210000000000    0.9853990000000000    0.2535940000000000 O
