Li18 Al6 P16 O58
1.0
   4.8353020000000004   -8.3749880000000001    0.0000000000000000
   4.8353020000000004    8.3749880000000001    0.0000000000000000
   0.0000000000000000    0.0000000000000000   13.6459180000000000
Li Al P O
18 6 16 58
direct
   0.8988260000000000    0.2371210000000000    0.0642310000000000 Li
   0.3333330000000000    0.6666670000000000    0.1187200000000000 Li
   0.2371210000000000    0.3382940000000000    0.9357690000000000 Li
   0.3333330000000000    0.6666670000000000    0.6187200000000000 Li
   0.1011740000000000    0.3382940000000000    0.4357690000000000 Li
   0.2371210000000000    0.8988260000000000    0.4357690000000000 Li
   0.3382940000000000    0.1011740000000000    0.0642310000000000 Li
   0.3382940000000000    0.2371210000000000    0.5642310000000000 Li
   0.6666670000000000    0.3333330000000000    0.3812800000000000 Li
   0.8988260000000000    0.6617060000000000    0.5642310000000000 Li
   0.6666670000000000    0.3333330000000000    0.8812800000000000 Li
   0.6617060000000000    0.7628790000000000    0.4357690000000000 Li
   0.0000000000000000    0.0000000000000000    0.5000000000000000 Li
   0.7628790000000000    0.1011740000000000    0.5642310000000000 Li
   0.1011740000000000    0.7628790000000000    0.9357690000000000 Li
   0.7628790000000000    0.6617060000000000    0.0642310000000000 Li
   0.0000000000000000    0.0000000000000000    0.0000000000000000 Li
   0.6617060000000000    0.8988260000000000    0.9357690000000000 Li
   0.5654790000000000    0.0000000000000000    0.7500000000000000 Al
   0.4345210000000000    0.4345210000000000    0.7500000000000000 Al
   0.5654790000000000    0.5654790000000000    0.2500000000000000 Al
   0.0000000000000000    0.4345210000000000    0.2500000000000000 Al
   0.4345210000000000    0.0000000000000000    0.2500000000000000 Al
   0.0000000000000000    0.5654790000000000    0.7500000000000000 Al
   0.3184730000000000    0.0921020000000000    0.8427330000000000 P
   0.9078980000000000    0.2263710000000000    0.8427330000000000 P
   0.3184730000000000    0.2263710000000000    0.3427330000000000 P
   0.2263710000000000    0.9078980000000000    0.6572670000000000 P
   0.9078980000000000    0.6815270000000000    0.3427330000000000 P
   0.3333330000000000    0.6666670000000000    0.8706170000000000 P
   0.6666670000000000    0.3333330000000000    0.1293830000000000 P
   0.6815270000000000    0.9078980000000000    0.1572670000000000 P
   0.3333330000000000    0.6666670000000000    0.3706170000000000 P
   0.7736290000000000    0.0921020000000000    0.3427330000000000 P
   0.6815270000000000    0.7736290000000000    0.6572670000000000 P
   0.0921020000000000    0.3184730000000000    0.6572670000000000 P
   0.6666670000000000    0.3333330000000000    0.6293830000000000 P
   0.2263710000000000    0.3184730000000000    0.1572670000000000 P
   0.0921020000000000    0.7736290000000000    0.1572670000000000 P
   0.7736290000000000    0.6815270000000000    0.8427330000000000 P
   0.7405960000000000    0.6620170000000000    0.3406740000000000 O
   0.6213950000000000    0.1025900000000000    0.3301370000000000 O
   0.9214220000000000    0.2594040000000000    0.3406740000000000 O
   0.3379830000000000    0.0785780000000000    0.3406740000000000 O
   0.2254070000000000    0.9985330000000000    0.5663220000000000 O
   0.0014670000000000    0.7745930000000000    0.0663220000000000 O
   0.3291500000000000    0.8163450000000000    0.3319610000000000 O
   0.0014670000000000    0.2268740000000000    0.5663220000000000 O
   0.2078580000000000    0.2078580000000000    0.2500000000000000 O
   0.6666670000000000    0.3333330000000000    0.5180300000000000 O
   0.2268740000000000    0.0014670000000000    0.9336780000000000 O
   0.4871960000000000    0.6708499999999999    0.3319610000000000 O
   0.0000000000000000    0.7921420000000000    0.2500000000000000 O
   0.9985330000000000    0.7731260000000000    0.4336780000000000 O
   0.8974100000000000    0.5188050000000000    0.3301370000000000 O
   0.1025900000000000    0.6213950000000000    0.1698630000000000 O
   0.6708499999999999    0.4871960000000000    0.1680390000000000 O
   0.0785780000000000    0.7405960000000000    0.6593260000000000 O
   0.5128040000000000    0.1836550000000000    0.1680390000000000 O
   0.8163450000000000    0.4871960000000000    0.6680390000000000 O
   0.5188050000000000    0.8974100000000000    0.1698630000000000 O
   0.4871960000000000    0.8163450000000000    0.8319610000000000 O
   0.2254070000000000    0.2268740000000000    0.0663220000000000 O
   0.7731260000000000    0.7745930000000000    0.5663220000000000 O
   0.7405960000000000    0.0785780000000000    0.8406740000000000 O
   0.2594040000000000    0.3379830000000000    0.6593260000000000 O
   0.4811950000000000    0.3786050000000000    0.3301370000000000 O
   0.3786050000000000    0.4811950000000000    0.1698630000000000 O
   0.6620170000000000    0.7405960000000000    0.1593260000000000 O
   0.3333330000000000    0.6666670000000000    0.4819700000000000 O
   0.7731260000000000    0.9985330000000000    0.0663220000000000 O
   0.5188050000000000    0.6213950000000000    0.6698630000000000 O
   0.1836550000000000    0.6708499999999999    0.8319610000000000 O
   0.5128040000000000    0.3291500000000000    0.6680390000000000 O
   0.2594040000000000    0.9214220000000000    0.1593260000000000 O
   0.9985330000000000    0.2254070000000000    0.9336780000000000 O
   0.7745930000000000    0.0014670000000000    0.4336780000000000 O
   0.2268740000000000    0.2254070000000000    0.4336780000000000 O
   0.3333330000000000    0.6666670000000000    0.9819700000000000 O
   0.9214220000000000    0.6620170000000000    0.8406740000000000 O
   0.7921420000000000    0.0000000000000000    0.2500000000000000 O
   0.8163450000000000    0.3291500000000000    0.1680390000000000 O
   0.6620170000000000    0.9214220000000000    0.6593260000000000 O
   0.2078580000000000    0.0000000000000000    0.7500000000000000 O
   0.8974100000000000    0.3786050000000000    0.8301370000000000 O
   0.7745930000000000    0.7731260000000000    0.9336780000000000 O
   0.0785780000000000    0.3379830000000000    0.1593260000000000 O
   0.3379830000000000    0.2594040000000000    0.8406740000000000 O
   0.6213950000000000    0.5188050000000000    0.8301370000000000 O
   0.3786050000000000    0.8974100000000000    0.6698630000000000 O
   0.6708499999999999    0.1836550000000000    0.6680390000000000 O
   0.4811950000000000    0.1025900000000000    0.8301370000000000 O
   0.7921420000000000    0.7921420000000000    0.7500000000000000 O
   0.1836550000000000    0.5128040000000000    0.3319610000000000 O
   0.3291500000000000    0.5128040000000000    0.8319610000000000 O
   0.0000000000000000    0.2078580000000000    0.7500000000000000 O
   0.6666670000000000    0.3333330000000000    0.0180300000000000 O
   0.1025900000000000    0.4811950000000000    0.6698630000000000 O
