Cs8 Li12 B12 P24 Pb8 O96
1.0
  12.9548498700000003    0.0000000000000000    0.0000000000000000
  -0.0000000000000000   12.9548498700000003   -0.0000000000000000
   0.0000000000000000    0.0000000000000000   12.9548498700000003
Cs Li B P Pb O
8 12 12 24 8 96
direct
   0.6486644300000000    0.3513355700000000    0.8513355700000000 Cs
   0.1486644300000000    0.1486644300000000    0.1486644300000000 Cs
   0.8513355700000000    0.6486644300000000    0.3513355700000000 Cs
   0.3513355700000000    0.8513355700000000    0.6486644300000000 Cs
   0.6519020700000000    0.8480979300000000    0.1519020700000000 Cs
   0.8480979300000000    0.1519020700000000    0.6519020700000000 Cs
   0.3480979300000000    0.3480979300000000    0.3480979300000000 Cs
   0.1519020700000000    0.6519020700000000    0.8480979300000000 Cs
   0.6961459700000000    0.5619092200000000    0.0997856400000000 Li
   0.9002143600000000    0.1961459700000000    0.9380907800000000 Li
   0.0619092200000000    0.4002143600000000    0.3038540300000000 Li
   0.1961459700000000    0.9380907800000000    0.9002143600000000 Li
   0.4002143600000000    0.3038540300000000    0.0619092200000000 Li
   0.5619092200000000    0.0997856400000000    0.6961459700000000 Li
   0.3038540300000000    0.0619092200000000    0.4002143600000000 Li
   0.0997856400000000    0.6961459700000000    0.5619092200000000 Li
   0.9380907800000000    0.9002143600000000    0.1961459700000000 Li
   0.8038540300000000    0.4380907800000000    0.5997856400000000 Li
   0.5997856400000000    0.8038540300000000    0.4380907800000000 Li
   0.4380907800000000    0.5997856400000000    0.8038540300000000 Li
   0.6466805300000000    0.1320540700000000    0.1184693200000000 B
   0.8815306800000000    0.1466805300000000    0.3679459300000000 B
   0.6320540700000000    0.3815306800000000    0.3533194700000000 B
   0.1466805300000000    0.3679459300000000    0.8815306800000000 B
   0.3815306800000000    0.3533194700000000    0.6320540700000000 B
   0.1320540700000000    0.1184693200000000    0.6466805300000000 B
   0.3533194700000000    0.6320540700000000    0.3815306800000000 B
   0.1184693200000000    0.6466805300000000    0.1320540700000000 B
   0.3679459300000000    0.8815306800000000    0.1466805300000000 B
   0.8533194700000000    0.8679459300000000    0.6184693200000000 B
   0.6184693200000000    0.8533194700000000    0.8679459300000000 B
   0.8679459300000000    0.6184693200000000    0.8533194700000000 B
   0.9460625300000000    0.4144978300000000    0.8166979599999999 P
   0.1833020400000000    0.4460625300000000    0.0855021700000000 P
   0.9144978300000000    0.6833020400000001    0.0539374700000000 P
   0.4460625300000000    0.0855021700000000    0.1833020400000000 P
   0.6833020400000001    0.0539374700000000    0.9144978300000000 P
   0.4144978300000000    0.8166979599999999    0.9460625300000000 P
   0.0539374700000000    0.9144978300000000    0.6833020400000001 P
   0.8166979599999999    0.9460625300000000    0.4144978300000000 P
   0.0855021700000000    0.1833020400000000    0.4460625300000000 P
   0.5539374700000000    0.5855021700000000    0.3166979600000000 P
   0.3166979600000000    0.5539374700000000    0.5855021700000000 P
   0.5855021700000000    0.3166979600000000    0.5539374700000000 P
   0.6215853400000000    0.3462079600000000    0.1375782000000000 P
   0.8624218000000000    0.1215853400000000    0.1537920400000000 P
   0.8462079600000000    0.3624218000000000    0.3784146600000000 P
   0.1215853400000000    0.1537920400000000    0.8624218000000000 P
   0.3624218000000000    0.3784146600000000    0.8462079600000000 P
   0.3462079600000000    0.1375782000000000    0.6215853400000000 P
   0.3784146600000000    0.8462079600000000    0.3624218000000000 P
   0.1375782000000000    0.6215853400000000    0.3462079600000000 P
   0.1537920400000000    0.8624218000000000    0.1215853400000000 P
   0.8784146600000000    0.6537920400000000    0.6375782000000000 P
   0.6375782000000000    0.8784146600000000    0.6537920400000000 P
   0.6537920400000000    0.6375782000000000    0.8784146600000000 P
   0.5961790000000000    0.5961790000000000    0.5961790000000000 Pb
   0.4038210000000000    0.0961790000000000    0.9038210000000000 Pb
   0.0961790000000000    0.9038210000000000    0.4038210000000000 Pb
   0.9038210000000000    0.4038210000000000    0.0961790000000000 Pb
   0.4400156000000000    0.5599844000000000    0.0599844000000000 Pb
   0.9400156000000000    0.9400156000000000    0.9400156000000000 Pb
   0.0599844000000000    0.4400156000000000    0.5599844000000000 Pb
   0.5599844000000000    0.0599844000000000    0.4400156000000000 Pb
   0.5969468700000000    0.5972427300000001    0.2077440200000000 O
   0.7922559800000000    0.0969468700000000    0.9027572699999999 O
   0.0972427300000000    0.2922559800000000    0.4030531300000000 O
   0.0969468700000000    0.9027572699999999    0.7922559800000000 O
   0.2922559800000000    0.4030531300000000    0.0972427300000000 O
   0.5972427300000001    0.2077440200000000    0.5969468700000000 O
   0.4030531300000000    0.0972427300000000    0.2922559800000000 O
   0.2077440200000000    0.5969468700000000    0.5972427300000001 O
   0.9027572699999999    0.7922559800000000    0.0969468700000000 O
   0.9030531300000000    0.4027572700000000    0.7077440200000000 O
   0.7077440200000000    0.9030531300000000    0.4027572700000000 O
   0.4027572700000000    0.7077440200000000    0.9030531300000000 O
   0.0670438500000000    0.4004596700000000    0.8067324000000000 O
   0.1932676000000000    0.5670438500000000    0.0995403300000000 O
   0.9004596700000000    0.6932676000000000    0.9329561500000000 O
   0.5670438500000000    0.0995403300000000    0.1932676000000000 O
   0.6932676000000000    0.9329561500000000    0.9004596700000000 O
   0.4004596700000000    0.8067324000000000    0.0670438500000000 O
   0.9329561500000000    0.9004596700000000    0.6932676000000000 O
   0.8067324000000000    0.0670438500000000    0.4004596700000000 O
   0.0995403300000000    0.1932676000000000    0.5670438500000000 O
   0.4329561500000000    0.5995403300000000    0.3067324000000000 O
   0.3067324000000000    0.4329561500000000    0.5995403300000000 O
   0.5995403300000000    0.3067324000000000    0.4329561500000000 O
   0.7138302600000000    0.4135938100000000    0.1062898700000000 O
   0.8937101300000000    0.2138302600000000    0.0864061900000000 O
   0.9135938100000000    0.3937101300000000    0.2861697400000000 O
   0.2138302600000000    0.0864061900000000    0.8937101300000000 O
   0.3937101300000000    0.2861697400000000    0.9135938100000000 O
   0.4135938100000000    0.1062898700000000    0.7138302600000000 O
   0.2861697400000000    0.9135938100000000    0.3937101300000000 O
   0.1062898700000000    0.7138302600000000    0.4135938100000000 O
   0.0864061900000000    0.8937101300000000    0.2138302600000000 O
   0.7861697400000000    0.5864061900000000    0.6062898700000000 O
   0.6062898700000000    0.7861697400000000    0.5864061900000000 O
   0.5864061900000000    0.6062898700000000    0.7861697400000000 O
   0.9369073500000000    0.5283390200000000    0.8598735800000000 O
   0.1401264200000000    0.4369073500000000    0.9716609800000000 O
   0.0283390200000000    0.6401264200000000    0.0630926500000000 O
   0.4369073500000000    0.9716609800000000    0.1401264200000000 O
   0.6401264200000000    0.0630926500000000    0.0283390200000000 O
   0.5283390200000000    0.8598735800000000    0.9369073500000000 O
   0.0630926500000000    0.0283390200000000    0.6401264200000000 O
   0.8598735800000000    0.9369073500000000    0.5283390200000000 O
   0.9716609800000000    0.1401264200000000    0.4369073500000000 O
   0.5630926500000000    0.4716609800000000    0.3598735800000000 O
   0.3598735800000000    0.5630926500000000    0.4716609800000000 O
   0.4716609800000000    0.3598735800000000    0.5630926500000000 O
   0.8982176800000000    0.3405353700000000    0.8953474900000000 O
   0.1046525100000000    0.3982176800000000    0.1594646300000000 O
   0.8405353700000000    0.6046525100000000    0.1017823200000000 O
   0.3982176800000000    0.1594646300000000    0.1046525100000000 O
   0.6046525100000000    0.1017823200000000    0.8405353700000000 O
   0.3405353700000000    0.8953474900000000    0.8982176800000000 O
   0.1017823200000000    0.8405353700000000    0.6046525100000000 O
   0.8953474900000000    0.8982176800000000    0.3405353700000000 O
   0.1594646300000000    0.1046525100000000    0.3982176800000000 O
   0.6017823200000000    0.6594646300000000    0.3953474900000000 O
   0.3953474900000000    0.6017823200000000    0.6594646300000000 O
   0.6594646300000000    0.3953474900000000    0.6017823200000000 O
   0.6331234700000000    0.2388849900000000    0.0819663300000000 O
   0.9180336700000000    0.1331234700000000    0.2611150100000000 O
   0.7388849900000000    0.4180336700000000    0.3668765300000000 O
   0.1331234700000000    0.2611150100000000    0.9180336700000000 O
   0.4180336700000000    0.3668765300000000    0.7388849900000000 O
   0.2388849900000000    0.0819663300000000    0.6331234700000000 O
   0.3668765300000000    0.7388849900000000    0.4180336700000000 O
   0.0819663300000000    0.6331234700000000    0.2388849900000000 O
   0.2611150100000000    0.9180336700000000    0.1331234700000000 O
   0.8668765300000000    0.7611150100000000    0.5819663300000000 O
   0.5819663300000000    0.8668765300000000    0.7611150100000000 O
   0.7611150100000000    0.5819663300000000    0.8668765300000000 O
   0.6184712100000000    0.3236740500000000    0.2558473400000000 O
   0.7441526600000000    0.1184712100000000    0.1763259500000000 O
   0.8236740500000000    0.2441526600000000    0.3815287900000000 O
   0.1184712100000000    0.1763259500000000    0.7441526600000000 O
   0.2441526600000000    0.3815287900000000    0.8236740500000000 O
   0.3236740500000000    0.2558473400000000    0.6184712100000000 O
   0.3815287900000000    0.8236740500000000    0.2441526600000000 O
   0.2558473400000000    0.6184712100000000    0.3236740500000000 O
   0.1763259500000000    0.7441526600000000    0.1184712100000000 O
   0.8815287900000000    0.6763259500000000    0.7558473400000000 O
   0.7558473400000000    0.8815287900000000    0.6763259500000000 O
   0.6763259500000000    0.7558473400000000    0.8815287900000000 O
   0.5186243000000000    0.3920625800000000    0.1007798500000000 O
   0.8992201500000000    0.0186243000000000    0.1079374200000000 O
   0.8920625800000000    0.3992201500000000    0.4813757000000000 O
   0.0186243000000000    0.1079374200000000    0.8992201500000000 O
   0.3992201500000000    0.4813757000000000    0.8920625800000000 O
   0.3920625800000000    0.1007798500000000    0.5186243000000000 O
   0.4813757000000000    0.8920625800000000    0.3992201500000000 O
   0.1007798500000000    0.5186243000000000    0.3920625800000000 O
   0.1079374200000000    0.8992201500000000    0.0186243000000000 O
   0.9813757000000000    0.6079374200000000    0.6007798500000000 O
   0.6007798500000000    0.9813757000000000    0.6079374200000000 O
   0.6079374200000000    0.6007798500000000    0.9813757000000000 O
