pymatgen with grid density = 978 / number of atoms
0
Gamma
1 3 3
