Rb16 Li4 H12 S16 O64
1.0
  30.6244109999999985    0.0000000000000000    0.0000000000000000
   0.0000000000000000    7.6510030000000002    0.0000000000000000
   0.0000000000000000    0.1758670000000000    7.7572830000000002
Rb Li H S O
16 4 12 16 64
direct
   0.5398910000000000    0.9949290000000000    0.7579360000000001 Rb
   0.0398910000000000    0.0050710000000000    0.2420640000000000 Rb
   0.3093820000000000    0.9795970000000001    0.0125520000000000 Rb
   0.8093820000000000    0.0204030000000000    0.9874480000000000 Rb
   0.1947810000000000    0.3861610000000000    0.9238760000000000 Rb
   0.6947810000000000    0.6138390000000000    0.0761240000000000 Rb
   0.4209760000000000    0.8428970000000000    0.3888780000000000 Rb
   0.9209760000000000    0.1571030000000000    0.6111220000000001 Rb
   0.3020200000000000    0.2751670000000000    0.5004510000000000 Rb
   0.8020200000000000    0.7248329999999999    0.4995490000000000 Rb
   0.0567040000000000    0.5286680000000000    0.5026560000000000 Rb
   0.5567040000000000    0.4713320000000000    0.4973440000000000 Rb
   0.1830980000000000    0.8785760000000000    0.6334379999999999 Rb
   0.6830980000000000    0.1214240000000000    0.3665620000000000 Rb
   0.4300000000000000    0.5482230000000000    0.8719370000000000 Rb
   0.9300000000000000    0.4517770000000000    0.1280630000000000 Rb
   0.4832220000000000    0.1793670000000000    0.1354260000000000 Li
   0.9832220000000000    0.8206329999999999    0.8645740000000000 Li
   0.2461690000000000    0.6235650000000000    0.2662140000000000 Li
   0.7461690000000000    0.3764350000000000    0.7337860000000000 Li
   0.6274630000000000    0.2759050000000000    0.9341699999999999 H
   0.1274630000000000    0.7240950000000000    0.0658300000000000 H
   0.3388560000000000    0.6443650000000000    0.7473330000000000 H
   0.8388560000000000    0.3556350000000000    0.2526670000000000 H
   0.3936670000000000    0.1920330000000000    0.6618600000000000 H
   0.8936670000000000    0.8079670000000000    0.3381400000000000 H
   0.0950530000000000    0.2280290000000000    0.8337660000000000 H
   0.5950530000000001    0.7719710000000000    0.1662340000000000 H
   0.1402840000000000    0.1836970000000000    0.3067170000000000 H
   0.6402840000000000    0.8163030000000000    0.6932830000000000 H
   0.5039540000000000    0.5042140000000001    0.1477950000000000 H
   0.0039540000000000    0.4957860000000000    0.8522050000000000 H
   0.1786600000000000    0.9125940000000000    0.1257370000000000 S
   0.6786600000000000    0.0874060000000000    0.8742630000000000 S
   0.3047430000000000    0.7964410000000000    0.5350340000000000 S
   0.8047430000000000    0.2035590000000000    0.4649660000000000 S
   0.4271550000000000    0.0323460000000000    0.8644380000000000 S
   0.9271550000000000    0.9676540000000000    0.1355620000000000 S
   0.5568750000000000    0.9639840000000000    0.2995590000000000 S
   0.0568750000000000    0.0360160000000000    0.7004410000000000 S
   0.1759510000000000    0.3763130000000000    0.4558740000000000 S
   0.6759510000000000    0.6236870000000000    0.5441260000000000 S
   0.4362540000000000    0.3651150000000000    0.4128890000000000 S
   0.9362540000000000    0.6348850000000000    0.5871110000000000 S
   0.0582670000000000    0.5017920000000000    0.0308160000000000 S
   0.5582670000000000    0.4982080000000000    0.9691840000000000 S
   0.3043260000000000    0.4544140000000000    0.9910500000000000 S
   0.8043260000000000    0.5455860000000000    0.0089500000000000 S
   0.2066640000000000    0.8297630000000000    0.2565930000000000 O
   0.7066640000000000    0.1702370000000000    0.7434070000000000 O
   0.1567120000000000    0.7579669999999999    0.0173080000000000 O
   0.6567120000000000    0.2420330000000000    0.9826920000000000 O
   0.1413180000000000    0.0047760000000000    0.2033170000000000 O
   0.6413180000000001    0.9952240000000000    0.7966830000000000 O
   0.2026050000000000    0.0147500000000000    0.9967030000000000 O
   0.7026050000000000    0.9852500000000000    0.0032970000000000 O
   0.2776710000000000    0.6464210000000000    0.4828290000000000 O
   0.7776710000000000    0.3535790000000000    0.5171710000000000 O
   0.3460140000000000    0.7179000000000000    0.6287700000000001 O
   0.8460140000000000    0.2821000000000000    0.3712300000000000 O
   0.3225450000000000    0.8970250000000000    0.3871770000000000 O
   0.8225450000000000    0.1029750000000000    0.6128230000000000 O
   0.2813670000000000    0.9075839999999999    0.6569090000000000 O
   0.7813670000000000    0.0924160000000000    0.3430910000000000 O
   0.4469110000000000    0.9159680000000000    0.7380490000000000 O
   0.9469109999999999    0.0840320000000000    0.2619510000000000 O
   0.4577990000000000    0.1751240000000000    0.9086730000000000 O
   0.9577990000000000    0.8248760000000001    0.0913270000000000 O
   0.3860500000000000    0.1213280000000000    0.7788430000000000 O
   0.8860500000000000    0.8786720000000000    0.2211570000000000 O
   0.4108800000000000    0.9388020000000000    0.0181470000000000 O
   0.9108800000000000    0.0611980000000000    0.9818530000000000 O
   0.5722410000000000    0.1126640000000000    0.3978640000000000 O
   0.0722410000000000    0.8873360000000000    0.6021360000000000 O
   0.5346900000000000    0.8291900000000000    0.4043510000000000 O
   0.0346900000000000    0.1708100000000000    0.5956490000000000 O
   0.6015790000000000    0.8808009999999999    0.2313900000000000 O
   0.1015790000000000    0.1191990000000000    0.7686100000000000 O
   0.5316870000000000    0.0127170000000000    0.1436060000000000 O
   0.0316870000000000    0.9872830000000000    0.8563940000000000 O
   0.2048480000000000    0.4287200000000000    0.3122750000000000 O
   0.7048480000000000    0.5712800000000000    0.6877250000000000 O
   0.1581080000000000    0.5219380000000000    0.5525930000000000 O
   0.6581080000000000    0.4780620000000000    0.4474070000000000 O
   0.1954500000000000    0.2391230000000000    0.5656790000000000 O
   0.6954500000000000    0.7608770000000000    0.4343210000000000 O
   0.1330870000000000    0.2956660000000000    0.3681680000000000 O
   0.6330870000000000    0.7043340000000000    0.6318319999999999 O
   0.4625540000000000    0.2082010000000000    0.3639740000000000 O
   0.9625540000000000    0.7917990000000000    0.6360270000000000 O
   0.3955560000000000    0.2985250000000000    0.5049920000000000 O
   0.8955560000000000    0.7014750000000000    0.4950080000000000 O
   0.4620220000000000    0.4751650000000000    0.5323720000000000 O
   0.9620220000000000    0.5248350000000001    0.4676280000000000 O
   0.4243180000000000    0.4691600000000000    0.2567530000000000 O
   0.9243180000000000    0.5308400000000000    0.7432470000000000 O
   0.2710770000000000    0.5888320000000000    0.0420950000000000 O
   0.7710770000000000    0.4111680000000000    0.9579050000000000 O
   0.0218190000000000    0.5901120000000000    0.8998180000000000 O
   0.5218190000000000    0.4098880000000000    0.1001820000000000 O
   0.0337930000000000    0.3788550000000000    0.1386430000000000 O
   0.5337930000000000    0.6211449999999999    0.8613570000000000 O
   0.0904010000000000    0.4229830000000000    0.9158800000000000 O
   0.5904010000000000    0.5770170000000000    0.0841200000000000 O
   0.0759360000000000    0.6517780000000000    0.1223220000000000 O
   0.5759360000000000    0.3482220000000000    0.8776780000000000 O
   0.2844150000000000    0.3329060000000000    0.8660390000000000 O
   0.7844150000000000    0.6670940000000000    0.1339610000000000 O
   0.3413690000000000    0.5536670000000000    0.9034540000000000 O
   0.8413690000000000    0.4463330000000000    0.0965460000000000 O
   0.3209650000000000    0.3567860000000000    0.1428030000000000 O
   0.8209649999999999    0.6432140000000000    0.8571970000000000 O
