ALGO = Fast
EDIFF = 0.00395
ENCUT = 520
IBRION = 2
ISIF = 3
ISMEAR = -5
ISPIN = 2
LASPH = True
LORBIT = 11
LREAL = Auto
LWAVE = False
MAGMOM = 14*-0.0 1*0.001 1*-0.0 1*-0.001 1*0.0 1*0.007 4*-0.0 1*-0.001 2*-0.0 1*-0.001 1*-0.0 1*0.003 1*0.001 1*-0.0 1*-0.001 1*0.005 3*0.0 1*-0.001 2*-0.0 1*-0.002 2*-0.0 1*-0.001 1*-0.004 2*-0.0 1*-0.001 1*0.025 1*0.066 1*0.019 1*0.001 2*0.004 1*0.002 1*0.019 1*0.103 1*0.009 1*0.01 1*0.008 1*0.002 1*0.009 1*0.015 1*0.014 1*0.134 1*0.113 1*0.086 1*0.006 1*0.011 1*0.006 1*0.002 1*0.017 1*0.08 1*0.011 1*0.006 1*0.002 1*0.004 1*0.009 1*0.011 1*0.015
NELM = 100
NSW = 99
PREC = Accurate
SIGMA = 0.05
