Cs4 Li1 Pb4 O6
1.0
  -5.0981969999999999   -4.3612159999999998    4.6153829999999996
  -5.0646339999999999    4.3612159999999998   -4.5807419999999999
   5.0981969999999999   -4.3612159999999998   -4.6153829999999996
Cs Li Pb O
4 1 4 6
direct
   0.9776390000000000    0.9842890000000000    0.9962810000000000 Cs
   0.5557600000000000    0.0530070000000000    0.5090880000000000 Cs
   0.5119920000000000    0.5157110000000000    0.9933500000000000 Cs
   0.9560810000000000    0.4469930000000000    0.5027520000000000 Cs
   0.2275120000000000    0.7500000000000000    0.4775120000000000 Li
   0.5258960000000000    0.5396630000000000    0.5068640000000000 Pb
   0.9707150000000000    0.9735410000000000    0.5091390000000000 Pb
   0.4672000000000000    0.9603370000000000    0.9862330000000000 Pb
   0.0355980000000000    0.5264590000000000    0.9971730000000000 Pb
   0.7472270000000000    0.5142370000000001    0.7660580000000000 O
   0.7518210000000000    0.9857629999999999    0.2329900000000000 O
   0.4359690000000000    0.7500000000000000    0.6859690000000001 O
   0.0142050000000000    0.2500000000000000    0.7642050000000000 O
   0.7458960000000000    0.7493820000000000    0.5008710000000000 O
   0.2514900000000000    0.7506180000000000    0.9965140000000000 O
