Li4 Zn4 P4 O16
1.0
   5.0362210000000003    0.0000000000000000    0.0000000000000000
   0.0000000000000000    6.7743190000000002    0.0000000000000000
   0.0000000000000000    0.0000000000000000   10.1724019999999999
Li Zn P O
4 4 4 16
direct
   0.1861820000000000    0.7137220000000000    0.6534670000000000 Li
   0.6861820000000000    0.2137220000000000    0.8465330000000000 Li
   0.8138180000000000    0.2137220000000000    0.3465330000000000 Li
   0.3138180000000000    0.7137220000000000    0.1534670000000000 Li
   0.8138879999999999    0.7130440000000000    0.3453980000000000 Zn
   0.1861120000000000    0.2130440000000000    0.6546020000000000 Zn
   0.6861120000000001    0.7130440000000000    0.8453980000000000 Zn
   0.3138880000000000    0.2130440000000000    0.1546020000000000 Zn
   0.8156720000000000    0.4630050000000000    0.0944950000000000 P
   0.3156720000000000    0.9630050000000000    0.4055050000000000 P
   0.1843280000000000    0.9630050000000000    0.9055050000000000 P
   0.6843280000000000    0.4630050000000000    0.5944950000000000 P
   0.1999240000000000    0.7729770000000000    0.3410660000000000 O
   0.2998440000000000    0.1510290000000000    0.8387620000000000 O
   0.6999240000000000    0.2729770000000000    0.1589340000000000 O
   0.7998440000000000    0.6510290000000000    0.6612380000000000 O
   0.7569700000000000    0.4661980000000000    0.4461090000000000 O
   0.1220610000000000    0.4610250000000000    0.1153890000000000 O
   0.2001560000000000    0.1510290000000000    0.3387620000000000 O
   0.8000760000000000    0.2729770000000000    0.6589340000000000 O
   0.3779390000000000    0.4610250000000000    0.6153890000000000 O
   0.8779390000000000    0.9610250000000000    0.8846110000000000 O
   0.2569700000000000    0.9661980000000000    0.0538910000000000 O
   0.7001560000000000    0.6510290000000000    0.1612380000000000 O
   0.7430300000000000    0.4661980000000000    0.9461090000000000 O
   0.6220610000000000    0.9610250000000000    0.3846110000000000 O
   0.2430300000000000    0.9661980000000000    0.5538910000000000 O
   0.3000760000000000    0.7729770000000000    0.8410660000000000 O
