pymatgen with grid density = 445 / number of atoms
0
Gamma
3 2 2
