pymatgen with grid density = 1324 / number of atoms
0
Gamma
5 4 2
