Li4 Tm4 Si4 O16
1.0
   4.9388560000000004    0.0000000000000000    0.0000000000000000
   0.0000000000000000    6.2670719999999998    0.0000000000000000
   0.0000000000000000    0.0000000000000000   10.8483230000000006
Li Tm Si O
4 4 4 16
direct
   0.0000000000000000    0.0000000000000000    0.0000000000000000 Li
   0.5000000000000000    0.0000000000000000    0.5000000000000000 Li
   0.0000000000000000    0.5000000000000000    0.0000000000000000 Li
   0.5000000000000000    0.5000000000000000    0.5000000000000000 Li
   0.9803660000000000    0.7500000000000000    0.2768070000000000 Tm
   0.5196340000000000    0.7500000000000000    0.7768070000000000 Tm
   0.0196340000000000    0.2500000000000000    0.7231930000000000 Tm
   0.4803660000000000    0.2500000000000000    0.2231930000000000 Tm
   0.4174180000000000    0.7500000000000000    0.0879950000000000 Si
   0.0825820000000000    0.7500000000000000    0.5879950000000000 Si
   0.5825820000000000    0.2500000000000000    0.9120050000000000 Si
   0.9174180000000000    0.2500000000000000    0.4120050000000000 Si
   0.2261090000000000    0.5454030000000000    0.6630060000000000 O
   0.7738910000000000    0.4545970000000000    0.3369940000000000 O
   0.2738910000000000    0.5454030000000000    0.1630060000000000 O
   0.2261090000000000    0.9545970000000000    0.6630060000000000 O
   0.7261090000000000    0.0454030000000000    0.8369940000000000 O
   0.2546060000000000    0.2500000000000000    0.9021540000000000 O
   0.7261090000000000    0.4545970000000000    0.8369940000000000 O
   0.7738910000000000    0.0454030000000000    0.3369940000000000 O
   0.7453940000000000    0.7500000000000000    0.0978460000000000 O
   0.2453940000000000    0.2500000000000000    0.4021540000000000 O
   0.7125700000000000    0.2500000000000000    0.0506710000000000 O
   0.7546060000000000    0.7500000000000000    0.5978460000000000 O
   0.7874300000000000    0.2500000000000000    0.5506710000000000 O
   0.2125700000000000    0.7500000000000000    0.4493290000000000 O
   0.2874300000000000    0.7500000000000000    0.9493290000000000 O
   0.2738910000000000    0.9545970000000000    0.1630060000000000 O
