ALGO = Fast
EDIFF = 0.0019500000000000001
ENCUT = 520
IBRION = 2
ISIF = 3
ISMEAR = -5
ISPIN = 2
LASPH = True
LMAXMIX = 4
LORBIT = 11
LREAL = Auto
LWAVE = False
MAGMOM = 5*0.0 1*-0.001 1*-0.0 1*0.258 1*0.0 1*0.009 1*0.004 1*-0.0 1*0.003 1*0.004 4*-0.0 1*0.001 1*0.0 1*0.017 1*0.038 1*0.001 1*0.002 1*0.074 2*0.0 1*0.086 1*0.0 1*0.006 1*0.08 1*0.023 1*0.01 1*0.0 1*0.08 1*0.003 1*0.084 1*0.091 1*0.01
NELM = 100
NSW = 99
PREC = Accurate
SIGMA = 0.05
