Li2 Mg2 S2 O8 F2
1.0
   4.9787720000000002    0.0049970000000000   -1.5706910000000001
  -1.2306770000000000    5.0912020000000000   -1.5768279999999999
   0.0036020000000000   -0.0002680000000000    7.2080330000000004
Li Mg S O F
2 2 2 8 2
direct
   0.7252430000000000    0.3592590000000000    0.2113080000000000 Li
   0.2535180000000000    0.6197770000000000    0.7146439999999999 Li
   0.9969870000000000    0.0002290000000000    0.4984330000000000 Mg
   0.0029970000000000    0.9968960000000000    0.9994670000000000 Mg
   0.6692850000000000    0.3658090000000000    0.7490250000000001 S
   0.3314260000000000    0.6362040000000000    0.2512780000000000 S
   0.8727819999999999    0.3406190000000000    0.6403140000000000 O
   0.1281100000000000    0.6571340000000000    0.3617000000000000 O
   0.6828070000000001    0.6472450000000000    0.8539870000000001 O
   0.3158820000000000    0.3533960000000000    0.1447570000000000 O
   0.7295110000000000    0.2298190000000000    0.9036930000000000 O
   0.2696630000000000    0.7719050000000000    0.0985450000000000 O
   0.3834010000000000    0.2545380000000000    0.5973080000000000 O
   0.6166430000000001    0.7465320000000000    0.4030260000000000 O
   0.8918390000000000    0.0824510000000000    0.2433460000000000 F
   0.1079060000000000    0.9181870000000000    0.7541670000000000 F
