pymatgen with grid density = 575 / number of atoms
0
Gamma
4 3 3
