pymatgen with grid density = 1315 / number of atoms
0
Gamma
3 4 2
