Li2 Si2 Bi6 O14
1.0
   4.2923840000000002   -7.4346259999999997    0.0000000000000000
   4.2923840000000002    7.4346259999999997    0.0000000000000000
   0.0000000000000000    0.0000000000000000    5.2242530000000000
Li Si Bi O
2 2 6 14
direct
   0.0000000000000000    0.0000000000000000    0.0197140000000000 Li
   0.0000000000000000    0.0000000000000000    0.5197140000000000 Li
   0.3333330000000000    0.6666670000000000    0.1734630000000000 Si
   0.6666670000000000    0.3333330000000000    0.6734630000000000 Si
   0.0879250000000000    0.7326970000000000    0.7011810000000001 Bi
   0.2673030000000000    0.3552280000000000    0.7011810000000001 Bi
   0.6447720000000000    0.9120750000000000    0.7011810000000001 Bi
   0.3552280000000000    0.0879250000000000    0.2011810000000000 Bi
   0.7326970000000000    0.6447720000000000    0.2011810000000000 Bi
   0.9120750000000000    0.2673030000000000    0.2011810000000000 Bi
   0.0827380000000000    0.8551780000000000    0.3278030000000000 O
   0.1308420000000000    0.5310380000000000    0.0501310000000000 O
   0.4001970000000000    0.8691580000000000    0.0501310000000000 O
   0.3333330000000000    0.6666670000000000    0.4872780000000000 O
   0.1448220000000000    0.2275600000000000    0.3278030000000000 O
   0.4689620000000000    0.5998030000000000    0.0501310000000000 O
   0.2275600000000000    0.0827380000000000    0.8278030000000000 O
   0.7724400000000000    0.9172620000000000    0.3278030000000000 O
   0.5310380000000000    0.4001970000000000    0.5501310000000000 O
   0.8551780000000000    0.7724400000000000    0.8278030000000000 O
   0.6666670000000000    0.3333330000000000    0.9872780000000000 O
   0.5998030000000000    0.1308420000000000    0.5501310000000000 O
   0.8691580000000000    0.4689620000000000    0.5501310000000000 O
   0.9172620000000000    0.1448220000000000    0.8278030000000000 O
