ALGO = Fast
EDIFF = 0.00035
ENCUT = 520
IBRION = 2
ISIF = 3
ISMEAR = -5
ISPIN = 2
LASPH = True
LMAXMIX = 6
LORBIT = 11
LREAL = Auto
LWAVE = False
MAGMOM = 1*0.0 1*-0.01 1*-0.003 4*0.0
NELM = 100
NSW = 99
PREC = Accurate
SIGMA = 0.05
