Cs1 Li1 Mg14 O15
1.0
   8.5328582599999994    0.0000000000000000    0.0000000000000000
   0.0000000000000000    8.8088759499999991    0.0000000000000000
   0.0000000000000000    0.0000000000000000    4.3853555999999996
Cs Li Mg O
1 1 14 15
direct
   0.0980890200000000    0.5000000000000000    0.0000000000000000 Cs
   0.9811767600000000    0.0000000000000000    0.0000000000000000 Li
   0.5020725400000000    0.0000000000000000    0.0000000000000000 Mg
   0.5227168100000000    0.5000000000000000    0.0000000000000000 Mg
   0.9911961000000000    0.2339078300000000    0.5000000000000000 Mg
   0.9911961000000000    0.7660921700000000    0.5000000000000000 Mg
   0.4979470000000000    0.2481823900000000    0.5000000000000000 Mg
   0.4979470000000000    0.7518176100000000    0.5000000000000000 Mg
   0.2407812200000000    0.0000000000000000    0.5000000000000000 Mg
   0.2647339900000000    0.5000000000000000    0.5000000000000000 Mg
   0.7512628000000000    0.0000000000000000    0.5000000000000000 Mg
   0.7573641700000000    0.5000000000000000    0.5000000000000000 Mg
   0.2400914000000000    0.2145224400000000    0.0000000000000000 Mg
   0.2400914000000000    0.7854775600000000    0.0000000000000000 Mg
   0.7593434800000000    0.2486089900000000   -0.0000000000000000 Mg
   0.7593434800000000    0.7513910100000000    0.0000000000000000 Mg
   0.2663529700000000    0.0000000000000000    0.0000000000000000 O
   0.7327341700000000    0.0000000000000000    0.0000000000000000 O
   0.7468020800000000    0.5000000000000000    0.0000000000000000 O
   0.2454664500000000    0.2589859600000000    0.5000000000000000 O
   0.2454664500000000    0.7410140400000000    0.5000000000000000 O
   0.7428214700000000    0.2485641600000000    0.5000000000000000 O
   0.7428214700000000    0.7514358400000000    0.5000000000000000 O
  -0.0001114200000000    0.0000000000000000    0.5000000000000000 O
   0.9876282000000000    0.5000000000000000    0.5000000000000000 O
   0.4920467000000000    0.0000000000000000    0.5000000000000000 O
   0.4934238000000000    0.5000000000000000    0.5000000000000000 O
   0.9979125300000000    0.2257656700000000   -0.0000000000000000 O
   0.9979125300000000    0.7742343300000000   -0.0000000000000000 O
   0.4816846800000000    0.2647553700000000   -0.0000000000000000 O
   0.4816846800000000    0.7352446300000000   -0.0000000000000000 O
