Li12 Ca12 Si12 O42
1.0
   2.5735589999999999   -4.4575339999999999    0.0000000000000000
   2.5735589999999999    4.4575339999999999    0.0000000000000000
   0.0000000000000000    0.0000000000000000   41.6291259999999994
Li Ca Si O
12 12 12 42
direct
   0.6981080000000000    0.2866210000000000    0.6931220000000000 Li
   0.7133790000000000    0.4114870000000000    0.0264560000000000 Li
   0.5885130000000000    0.3018920000000000    0.3597890000000000 Li
   0.3018920000000000    0.7133790000000000    0.1931220000000000 Li
   0.2866210000000000    0.5885130000000000    0.5264560000000000 Li
   0.4114870000000000    0.6981080000000000    0.8597890000000000 Li
   0.2866210000000000    0.6981080000000000    0.6402110000000000 Li
   0.4114870000000000    0.7133790000000000    0.3068780000000000 Li
   0.3018920000000000    0.5885130000000000    0.9735440000000000 Li
   0.7133790000000000    0.3018920000000000    0.1402110000000000 Li
   0.5885130000000000    0.2866210000000000    0.8068780000000000 Li
   0.6981080000000000    0.4114870000000000    0.4735440000000000 Li
   0.9611710000000000    0.9611710000000000    0.6666670000000000 Ca
   0.0388290000000000    0.0000000000000000    0.0000000000000000 Ca
   0.0000000000000000    0.0388290000000000    0.3333330000000000 Ca
   0.0388290000000000    0.0388290000000000    0.1666670000000000 Ca
   0.9611710000000000    0.0000000000000000    0.5000000000000000 Ca
   0.0000000000000000    0.9611710000000000    0.8333330000000000 Ca
   0.9638590000000000    0.9277180000000000    0.7500000000000000 Ca
   0.0722820000000000    0.0361410000000000    0.0833330000000000 Ca
   0.9638590000000000    0.0361410000000000    0.4166670000000000 Ca
   0.0361410000000000    0.0722820000000000    0.2500000000000000 Ca
   0.9277180000000000    0.9638590000000000    0.5833330000000000 Ca
   0.0361410000000000    0.9638590000000000    0.9166670000000000 Ca
   0.3536770000000000    0.6266430000000000    0.7124900000000000 Si
   0.3733570000000000    0.7270340000000000    0.0458230000000000 Si
   0.2729660000000000    0.6463230000000000    0.3791560000000000 Si
   0.6463230000000000    0.3733570000000000    0.2124900000000000 Si
   0.6266430000000000    0.2729660000000000    0.5458229999999999 Si
   0.7270340000000000    0.3536770000000000    0.8791560000000000 Si
   0.6266430000000000    0.3536770000000000    0.6208440000000000 Si
   0.7270340000000000    0.3733570000000000    0.2875100000000000 Si
   0.6463230000000000    0.2729660000000000    0.9541770000000001 Si
   0.3733570000000000    0.6463230000000000    0.1208440000000000 Si
   0.2729660000000000    0.6266430000000000    0.7875100000000000 Si
   0.3536770000000000    0.7270340000000000    0.4541770000000000 Si
   0.3881850000000000    0.7763710000000000    0.7500000000000000 O
   0.2236290000000000    0.6118150000000000    0.0833330000000000 O
   0.3881850000000000    0.6118150000000000    0.4166670000000000 O
   0.6118150000000000    0.2236290000000000    0.2500000000000000 O
   0.7763710000000000    0.3881850000000000    0.5833330000000000 O
   0.6118150000000000    0.3881850000000000    0.9166670000000000 O
   0.6662530000000000    0.6192830000000000    0.7077130000000000 O
   0.3807170000000000    0.0469710000000000    0.0410460000000000 O
   0.9530290000000000    0.3337470000000000    0.3743790000000000 O
   0.3337470000000000    0.3807170000000000    0.2077130000000000 O
   0.6192830000000000    0.9530290000000000    0.5410460000000000 O
   0.0469710000000000    0.6662530000000000    0.8743790000000000 O
   0.6192830000000000    0.6662530000000000    0.6256210000000000 O
   0.0469710000000000    0.3807170000000000    0.2922870000000000 O
   0.3337470000000000    0.9530290000000000    0.9589540000000000 O
   0.3807170000000000    0.3337470000000000    0.1256210000000000 O
   0.9530290000000000    0.6192830000000000    0.7922870000000000 O
   0.6662530000000000    0.0469710000000000    0.4589540000000000 O
   0.0585230000000000    0.2915380000000000    0.7114530000000000 O
   0.7084620000000000    0.7669850000000000    0.0447860000000000 O
   0.2330150000000000    0.9414770000000000    0.3781200000000000 O
   0.9414770000000000    0.7084620000000000    0.2114530000000000 O
   0.2915380000000000    0.2330150000000000    0.5447860000000000 O
   0.7669850000000000    0.0585230000000000    0.8781200000000000 O
   0.2915380000000000    0.0585230000000000    0.6218800000000000 O
   0.7669850000000000    0.7084620000000000    0.2885470000000000 O
   0.9414770000000000    0.2330150000000000    0.9552140000000000 O
   0.7084620000000000    0.9414770000000000    0.1218800000000000 O
   0.2330150000000000    0.2915380000000000    0.7885470000000000 O
   0.0585230000000000    0.7669850000000000    0.4552140000000000 O
   0.8679510000000000    0.3446340000000000    0.6455310000000000 O
   0.6553660000000000    0.5233160000000000    0.9788650000000000 O
   0.4766840000000000    0.1320490000000000    0.3121980000000000 O
   0.1320490000000000    0.6553660000000000    0.1455310000000000 O
   0.3446340000000000    0.4766840000000000    0.4788650000000000 O
   0.5233160000000000    0.8679510000000000    0.8121980000000000 O
   0.3446340000000000    0.8679510000000000    0.6878020000000000 O
   0.5233160000000000    0.6553660000000000    0.3544690000000000 O
   0.1320490000000000    0.4766840000000000    0.0211350000000000 O
   0.6553660000000000    0.1320490000000000    0.1878020000000000 O
   0.4766840000000000    0.3446340000000000    0.8544690000000000 O
   0.8679510000000000    0.5233160000000000    0.5211350000000000 O
