Rb2 Li14 Si4 O16
1.0
   3.2047970000000001    7.8791330000000004    0.0000000000000000
  -3.2047970000000001    7.8791330000000004    0.0000000000000000
   0.0000000000000000    0.0706900000000000    7.8289489999999997
Rb Li Si O
2 14 4 16
direct
   0.2448260000000000    0.2448260000000000    0.5304730000000000 Rb
   0.7551740000000000    0.7551740000000000    0.4695270000000000 Rb
   0.6786050000000000    0.1872670000000000    0.6313940000000000 Li
   0.8127330000000000    0.3213950000000000    0.3686060000000000 Li
   0.1872670000000000    0.6786050000000000    0.6313940000000000 Li
   0.9322630000000000    0.9322630000000000    0.2869730000000000 Li
   0.0730430000000000    0.5573690000000000    0.1295720000000000 Li
   0.3213950000000000    0.8127330000000000    0.3686060000000000 Li
   0.0677370000000000    0.0677370000000000    0.7130270000000000 Li
   0.5000000000000000    0.5000000000000000    0.0000000000000000 Li
   0.5573690000000000    0.0730430000000000    0.1295720000000000 Li
   0.6423240000000000    0.6423240000000000    0.1354380000000000 Li
   0.4426310000000000    0.9269570000000000    0.8704280000000000 Li
   0.9269570000000000    0.4426310000000000    0.8704280000000000 Li
   0.3576760000000000    0.3576760000000000    0.8645620000000001 Li
   0.0000000000000000    0.0000000000000000    0.0000000000000000 Li
   0.4293620000000000    0.4293620000000000    0.2927140000000000 Si
   0.5706380000000000    0.5706380000000000    0.7072860000000000 Si
   0.8534240000000000    0.8534240000000000    0.8599830000000001 Si
   0.1465760000000000    0.1465760000000000    0.1400170000000000 Si
   0.8722180000000000    0.8722180000000000    0.0683040000000000 O
   0.3813010000000000    0.8150930000000000    0.6062930000000000 O
   0.9478480000000000    0.9478480000000000    0.7635320000000000 O
   0.4674740000000000    0.4674740000000000    0.7498510000000000 O
   0.9792040000000000    0.4136610000000000    0.1937880000000000 O
   0.6159559999999999    0.6159559999999999    0.8978940000000000 O
   0.0521520000000000    0.0521520000000000    0.2364680000000000 O
   0.1277820000000000    0.1277820000000000    0.9316960000000000 O
   0.5863390000000001    0.0207960000000000    0.8062120000000000 O
   0.1849070000000000    0.6186990000000000    0.3937070000000000 O
   0.3840440000000000    0.3840440000000000    0.1021060000000000 O
   0.6186990000000000    0.1849070000000000    0.3937070000000000 O
   0.8150930000000000    0.3813010000000000    0.6062930000000000 O
   0.0207960000000000    0.5863390000000001    0.8062120000000000 O
   0.4136610000000000    0.9792040000000000    0.1937880000000000 O
   0.5325260000000001    0.5325260000000001    0.2501490000000000 O
