pymatgen with grid density = 884 / number of atoms
0
Gamma
3 4 2
