ALGO = Fast
EDIFF = 0.0016
ENCUT = 520
IBRION = 2
ISIF = 3
ISMEAR = -5
ISPIN = 2
LASPH = True
LORBIT = 11
LREAL = Auto
LWAVE = False
MAGMOM = 4*-0.006 4*-0.001 4*-0.002 4*0.088 4*0.024 4*0.034 4*0.023 2*1.425 2*1.426
NELM = 100
NSW = 99
PREC = Accurate
SIGMA = 0.05
