pymatgen with grid density = 1258 / number of atoms
0
Gamma
3 2 2
