Rb4 Li4 H16 S8 N8 O24
1.0
   7.9474590000000003    0.0000000000000000    0.0000000000000000
  -1.4137560000000000    9.8773020000000002    0.0000000000000000
  -0.7036510000000000   -3.6908780000000001   10.2898599999999991
Rb Li H S N O
4 4 16 8 8 24
direct
   0.7593200000000000    0.1020510000000000    0.1451170000000000 Rb
   0.2406800000000000    0.8979490000000000    0.8548829999999999 Rb
   0.2231900000000000    0.9045740000000000    0.3398290000000000 Rb
   0.7768100000000000    0.0954260000000000    0.6601710000000000 Rb
   0.8898620000000000    0.7236000000000000    0.0523700000000000 Li
   0.1101380000000000    0.2764000000000000    0.9476300000000000 Li
   0.1156550000000000    0.2897210000000000    0.4572570000000000 Li
   0.8843450000000000    0.7102790000000000    0.5427430000000000 Li
   0.5487210000000000    0.6565380000000000    0.8497310000000000 H
   0.4512790000000000    0.3434620000000000    0.1502690000000000 H
   0.6908040000000000    0.5839259999999999    0.7516750000000000 H
   0.3091960000000000    0.4160740000000000    0.2483250000000000 H
   0.5349390000000001    0.6563950000000000    0.3263400000000000 H
   0.4650610000000000    0.3436050000000000    0.6736600000000000 H
   0.5428840000000000    0.6621460000000000    0.1732150000000000 H
   0.4571160000000000    0.3378540000000000    0.8267850000000000 H
   0.5019810000000000    0.3199610000000000    0.3873580000000000 H
   0.4980190000000000    0.6800389999999999    0.6126420000000000 H
   0.5572740000000000    0.1867580000000000    0.4352530000000000 H
   0.4427260000000000    0.8132420000000000    0.5647470000000000 H
   0.2236900000000000    0.5082110000000000    0.7832990000000000 H
   0.7763099999999999    0.4917890000000000    0.2167010000000000 H
   0.0266160000000000    0.5257100000000000    0.8253360000000000 H
   0.9733840000000000    0.4742900000000000    0.1746640000000000 H
   0.7463379999999999    0.8255280000000000    0.8268470000000000 S
   0.2536620000000000    0.1744720000000000    0.1731530000000000 S
   0.7320300000000000    0.8341499999999999    0.3227210000000000 S
   0.2679700000000000    0.1658500000000000    0.6772790000000000 S
   0.7593540000000000    0.3810370000000000    0.5088940000000000 S
   0.2406460000000000    0.6189630000000000    0.4911060000000000 S
   0.2336670000000000    0.6092500000000000    0.9967090000000000 S
   0.7663330000000000    0.3907500000000000    0.0032910000000000 S
   0.6192430000000000    0.6654770000000000    0.7758860000000000 N
   0.3807570000000000    0.3345230000000000    0.2241140000000000 N
   0.6134830000000000    0.6712480000000000    0.2588340000000000 N
   0.3865170000000000    0.3287520000000000    0.7411660000000000 N
   0.5570590000000000    0.2953650000000000    0.4640990000000000 N
   0.4429410000000000    0.7046350000000000    0.5359010000000000 N
   0.1528220000000000    0.5746550000000000    0.8433820000000000 N
   0.8471780000000000    0.4253450000000000    0.1566180000000000 N
   0.6309570000000000    0.9307090000000000    0.8563809999999999 O
   0.3690430000000000    0.0692910000000000    0.1436190000000000 O
   0.8427590000000000    0.8286559999999999    0.7172180000000000 O
   0.1572410000000000    0.1713440000000000    0.2827820000000000 O
   0.8642590000000000    0.8395660000000000    0.9421140000000000 O
   0.1357410000000000    0.1604340000000000    0.0578860000000000 O
   0.6233800000000000    0.9452350000000000    0.3598830000000000 O
   0.3766200000000000    0.0547650000000000    0.6401170000000000 O
   0.8361650000000000    0.8295510000000000    0.4371020000000000 O
   0.1638350000000000    0.1704490000000000    0.5628980000000000 O
   0.8367070000000000    0.8494680000000000    0.2201390000000000 O
   0.1632930000000000    0.1505320000000000    0.7798610000000000 O
   0.7618870000000000    0.5151559999999999    0.4808600000000000 O
   0.2381130000000000    0.4848440000000000    0.5191400000000000 O
   0.8694060000000000    0.2863300000000000    0.4317940000000000 O
   0.1305940000000000    0.7136700000000000    0.5682060000000000 O
   0.7925420000000000    0.4013720000000000    0.6481730000000000 O
   0.2074580000000000    0.5986280000000000    0.3518270000000000 O
   0.4123290000000000    0.6757520000000000    0.0026570000000000 O
   0.5876710000000001    0.3242480000000000    0.9973430000000000 O
   0.1317670000000000    0.7104400000000000    0.0749760000000000 O
   0.8682330000000000    0.2895600000000000    0.9250240000000000 O
   0.2202150000000000    0.4765730000000000    0.0300850000000000 O
   0.7797850000000000    0.5234270000000000    0.9699150000000000 O
