Cs1 Li1 H4 S1 O5
1.0
   2.8701740000000000    6.0652929999999996    0.0000000000000000
  -2.8701740000000000    6.0652929999999996    0.0000000000000000
   0.0000000000000000    1.5681410000000000    4.5495479999999997
Cs Li H S O
1 1 4 1 5
direct
   0.9996280000000000    0.9996280000000000    0.0001250000000000 Cs
   0.3230980000000000    0.3230980000000000    0.6294910000000000 Li
   0.1002890000000000    0.3702930000000000    0.2333230000000000 H
   0.3702930000000000    0.1002890000000000    0.2333230000000000 H
   0.5416190000000000    0.5416190000000000    0.5556740000000000 H
   0.5420340000000000    0.5420340000000000    0.2193840000000000 H
   0.7408450000000000    0.7408450000000000    0.7259570000000000 S
   0.4908390000000000    0.4908390000000000    0.4294520000000000 O
   0.9911870000000000    0.5615289999999999    0.8714499999999999 O
   0.5615289999999999    0.9911870000000000    0.8714499999999999 O
   0.2242350000000000    0.2242350000000000    0.3692610000000000 O
   0.6053850000000000    0.6053850000000000    0.8374120000000000 O
