Li24 Nd4 B12 O36
1.0
  16.5254996500000004    0.0000000000000000    0.0000000000000000
   0.0000000000000000    6.7103808200000001   -0.0095207300000000
   0.0000000000000000    1.9172800000000001    6.9970255000000003
Li Nd B O
24 4 12 36
direct
   0.0028519000000000    0.3248860500000000    0.0721512000000000 Li
   0.5028519000000000    0.1751139500000000    0.9278488000000000 Li
   0.9971481000000000    0.6751139500000000    0.9278488000000000 Li
   0.4971481000000000    0.8248860500000000    0.0721512000000000 Li
   0.9707661400000001    0.8293678300000000    0.5479433300000000 Li
   0.4707661400000000    0.6706321700000000    0.4520566700000000 Li
   0.0292338600000000    0.1706321700000000    0.4520566700000000 Li
   0.5292338599999999    0.3293678300000000    0.5479433300000000 Li
   0.7049547100000000    0.6300978500000000    0.7109260400000000 Li
   0.2049547100000000    0.8699021500000000    0.2890739600000000 Li
   0.2950452900000000    0.3699021500000000    0.2890739600000000 Li
   0.7950452900000000    0.1300978500000000    0.7109260400000000 Li
   0.9653437100000000    0.5561151500000000    0.3058248800000000 Li
   0.4653437100000000    0.9438848500000000    0.6941751200000000 Li
   0.0346562900000000    0.4438848500000000    0.6941751200000000 Li
   0.5346562900000000    0.0561151500000000    0.3058248800000000 Li
   0.7969046500000000    0.5522401600000000    0.4436770300000000 Li
   0.2969046500000000    0.9477598400000000    0.5563229700000000 Li
   0.2030953500000000    0.4477598400000000    0.5563229700000000 Li
   0.7030953500000000    0.0522401600000000    0.4436770300000000 Li
   0.5503582299999999    0.5815410000000000    0.8594614100000000 Li
   0.0503582300000000    0.9184590000000000    0.1405385900000000 Li
   0.4496417700000000    0.4184590000000000    0.1405385900000000 Li
   0.9496417700000001    0.0815410000000000    0.8594614100000000 Li
   0.8106718500000000    0.3475829800000000    0.0797069200000000 Nd
   0.3106718500000000    0.1524170200000000    0.9202930800000000 Nd
   0.1893281500000000    0.6524170200000000    0.9202930800000000 Nd
   0.6893281500000000    0.8475829800000000    0.0797069200000000 Nd
   0.8871918000000000    0.1868983100000000    0.4435441000000000 B
   0.3871918000000000    0.3131016900000000    0.5564559000000000 B
   0.1128082000000000    0.8131016900000000    0.5564559000000000 B
   0.6128082000000000    0.6868983100000000    0.4435441000000000 B
   0.6181018000000000    0.0027933300000000    0.7083894600000000 B
   0.1181018000000000    0.4972066700000000    0.2916105400000000 B
   0.3818982000000000    0.9972066700000000    0.2916105400000000 B
   0.8818982000000000    0.5027933300000000    0.7083894600000000 B
   0.6337316900000000    0.3386365200000000    0.0817364400000000 B
   0.1337316900000000    0.1613634800000000    0.9182635600000000 B
   0.3662683100000000    0.6613634800000000    0.9182635600000000 B
   0.8662683100000000    0.8386365200000000    0.0817364400000000 B
   0.9247024700000001    0.0756752000000000    0.6069214000000001 O
   0.4247024700000000    0.4243248000000000    0.3930786000000000 O
   0.0752975300000000    0.9243247999999999    0.3930786000000000 O
   0.5752975299999999    0.5756752000000001    0.6069214000000001 O
   0.8045421000000000    0.2208278300000000    0.4296635500000000 O
   0.3045421000000000    0.2791721700000000    0.5703364500000000 O
   0.1954579000000000    0.7791721700000001    0.5703364500000000 O
   0.6954579000000000    0.7208278299999999    0.4296635500000000 O
   0.5664662900000000    0.7705969000000000    0.2810813500000000 O
   0.0664662900000000    0.7294031000000000    0.7189186500000000 O
   0.4335337100000000    0.2294031000000000    0.7189186500000000 O
   0.9335337100000000    0.2705969000000000    0.2810813500000000 O
   0.5861639400000000    0.0899951900000000    0.5327464600000000 O
   0.0861639400000000    0.4100048100000000    0.4672535400000000 O
   0.4138360600000000    0.9100048100000000    0.4672535400000000 O
   0.9138360600000000    0.5899951900000000    0.5327464600000000 O
   0.8003676800000000    0.4494202600000000    0.7316455800000000 O
   0.3003676800000000    0.0505797400000000    0.2683544200000000 O
   0.1996323200000000    0.5505797400000000    0.2683544200000000 O
   0.6996323200000000    0.9494202600000000    0.7316455800000000 O
   0.5706813300000000    0.9602135200000000    0.8728584400000000 O
   0.0706813300000000    0.5397864800000000    0.1271415600000000 O
   0.4293186700000000    0.0397864800000000    0.1271415600000000 O
   0.9293186700000000    0.4602135200000000    0.8728584400000000 O
   0.5520760000000000    0.3254693500000000    0.0813226200000000 O
   0.0520760000000000    0.1745306500000000    0.9186773800000000 O
   0.4479240000000000    0.6745306500000000    0.9186773800000000 O
   0.9479240000000000    0.8254693500000000    0.0813226200000000 O
   0.6821075400000000    0.1685191600000000    0.1590195900000000 O
   0.1821075400000000    0.3314808400000000    0.8409804100000000 O
   0.3178924600000000    0.8314808400000000    0.8409804100000000 O
   0.8178924600000000    0.6685191600000000    0.1590195900000000 O
   0.8272886300000000    0.0238838300000000    0.9961298800000000 O
   0.3272886300000000    0.4761161700000000    0.0038701200000000 O
   0.1727113700000000    0.9761161699999999    0.0038701200000000 O
   0.6727113700000000    0.5238838300000001    0.9961298800000000 O
