pymatgen with grid density = 1313 / number of atoms
0
Gamma
3 4 4
