Li4 Lu2 Si2 O10
1.0
   8.3807469999999995    0.0000000000000000    0.0000000000000000
  -1.5145789999999999    5.2309690000000000    0.0000000000000000
  -0.9584440000000000   -1.4219210000000000    4.9639139999999999
Li Lu Si O
4 2 2 10
direct
   0.7993930000000000    0.5168410000000000    0.8289120000000000 Li
   0.2006070000000000    0.4831590000000000    0.1710880000000000 Li
   0.9606200000000000    0.0427040000000000    0.7425920000000000 Li
   0.0393800000000000    0.9572960000000000    0.2574080000000000 Li
   0.3846640000000000    0.7590170000000001    0.7694080000000000 Lu
   0.6153360000000000    0.2409830000000000    0.2305920000000000 Lu
   0.7760080000000000    0.6746130000000000    0.3117480000000000 Si
   0.2239920000000000    0.3253870000000000    0.6882520000000000 Si
   0.5076280000000000    0.6580830000000000    0.4181100000000000 O
   0.4923720000000000    0.3419170000000000    0.5818900000000000 O
   0.7414970000000000    0.7349869999999999    0.0438710000000000 O
   0.2585030000000000    0.2650130000000000    0.9561290000000000 O
   0.8432080000000000    0.4842700000000000    0.2141830000000000 O
   0.1567920000000000    0.5157300000000000    0.7858170000000000 O
   0.0315600000000000    0.8212650000000000    0.5411100000000000 O
   0.9684400000000000    0.1787350000000000    0.4588900000000000 O
   0.6343800000000001    0.0301240000000000    0.8846349999999999 O
   0.3656200000000000    0.9698760000000000    0.1153650000000000 O
