ALGO = Fast
EDIFF = 0.0036000000000000003
ENCUT = 520
IBRION = 2
ISIF = 3
ISMEAR = -5
ISPIN = 2
LASPH = True
LMAXMIX = 4
LORBIT = 11
LREAL = Auto
LWAVE = False
MAGMOM = 4*-0.0 4*0.411 2*0.006 4*0.013 4*0.006 4*0.013 2*0.006 2*0.055 2*0.062 2*0.008 2*0.075 2*-0.0 4*0.012 2*-0.0 2*0.075 2*0.008 2*0.062 4*0.055 2*0.062 2*0.008 2*0.075 2*-0.0 4*0.012 2*-0.0 2*0.075 2*0.008 2*0.062 2*0.055
NELM = 100
NSW = 99
PREC = Accurate
SIGMA = 0.05
