Li24 Eu4 B12 O36
1.0
  16.6100910000000006    0.0000000000000000    0.0000000000000000
   0.0000000000000000    6.7813910000000002    0.0000000000000000
   0.0000000000000000    1.9497640000000001    7.0791579999999996
Li Eu B O
24 4 12 36
direct
   0.9645450000000000    0.9470850000000000    0.1939680000000000 Li
   0.0354550000000000    0.0529150000000000    0.8060320000000000 Li
   0.4645450000000000    0.5529150000000000    0.8060320000000000 Li
   0.5354550000000000    0.4470850000000000    0.1939680000000000 Li
   0.5546030000000000    0.9116640000000000    0.6389340000000000 Li
   0.4453970000000000    0.0883360000000000    0.3610660000000000 Li
   0.0546030000000000    0.5883360000000000    0.3610660000000000 Li
   0.9453970000000000    0.4116640000000000    0.6389340000000000 Li
   0.4690350000000000    0.8320660000000000    0.0431610000000000 Li
   0.5309650000000000    0.1679340000000000    0.9568390000000000 Li
   0.9690350000000000    0.6679340000000000    0.9568390000000000 Li
   0.0309650000000000    0.3320660000000000    0.0431610000000000 Li
   0.7060870000000000    0.8672879999999999    0.7888579999999999 Li
   0.2939130000000000    0.1327120000000000    0.2111420000000000 Li
   0.2060870000000000    0.6327120000000001    0.2111420000000000 Li
   0.7939130000000000    0.3672880000000000    0.7888579999999999 Li
   0.7962860000000000    0.9546940000000000    0.0628340000000000 Li
   0.2037140000000000    0.0453060000000000    0.9371660000000001 Li
   0.2962860000000000    0.5453060000000000    0.9371660000000001 Li
   0.7037140000000000    0.4546940000000000    0.0628340000000000 Li
   0.9971160000000000    0.8226690000000000    0.5744110000000000 Li
   0.0028840000000000    0.1773310000000000    0.4255890000000000 Li
   0.4971160000000000    0.6773310000000000    0.4255890000000000 Li
   0.5028840000000000    0.3226690000000000    0.5744110000000000 Li
   0.6914850000000000    0.6534940000000000    0.4236040000000000 Eu
   0.3085150000000000    0.3465060000000000    0.5763960000000000 Eu
   0.1914850000000000    0.8465060000000000    0.5763960000000000 Eu
   0.8085150000000000    0.1534940000000000    0.4236040000000000 Eu
   0.8818180000000000    0.9993000000000000    0.7907620000000000 B
   0.1181820000000000    0.0007000000000000    0.2092380000000000 B
   0.3818180000000000    0.5007000000000000    0.2092380000000000 B
   0.6181820000000000    0.4993000000000000    0.7907620000000000 B
   0.6145530000000000    0.8126380000000000    0.0594990000000000 B
   0.3854470000000000    0.1873620000000000    0.9405010000000000 B
   0.1145530000000000    0.6873620000000000    0.9405010000000000 B
   0.8854470000000000    0.3126380000000000    0.0594990000000000 B
   0.8662000000000000    0.6620549999999999    0.4190040000000000 B
   0.1338000000000000    0.3379450000000000    0.5809960000000000 B
   0.3662000000000000    0.8379450000000001    0.5809960000000000 B
   0.6338000000000000    0.1620550000000000    0.4190040000000000 B
   0.9480330000000000    0.6756340000000000    0.4142420000000000 O
   0.0519670000000000    0.3243660000000000    0.5857580000000000 O
   0.4480330000000000    0.8243660000000000    0.5857580000000000 O
   0.5519670000000000    0.1756340000000000    0.4142420000000000 O
   0.6970650000000000    0.7744130000000000    0.0756410000000000 O
   0.3029350000000000    0.2255870000000000    0.9243590000000000 O
   0.1970650000000000    0.7255870000000000    0.9243590000000000 O
   0.8029350000000000    0.2744130000000000    0.0756410000000000 O
   0.8175370000000000    0.8312870000000000    0.3441410000000000 O
   0.1824630000000000    0.1687130000000000    0.6558590000000000 O
   0.3175370000000000    0.6687130000000000    0.6558590000000000 O
   0.6824630000000000    0.3312870000000000    0.3441410000000000 O
   0.5673820000000001    0.7325880000000000    0.2185450000000000 O
   0.4326180000000000    0.2674120000000000    0.7814550000000000 O
   0.0673820000000000    0.7674120000000000    0.7814550000000000 O
   0.9326179999999999    0.2325880000000000    0.2185450000000000 O
   0.4140090000000000    0.5858260000000000    0.0350960000000000 O
   0.5859910000000000    0.4141740000000000    0.9649040000000000 O
   0.9140090000000000    0.9141740000000000    0.9649040000000000 O
   0.0859910000000000    0.0858260000000000    0.0350960000000000 O
   0.5789810000000000    0.9250280000000000    0.8946700000000000 O
   0.4210190000000000    0.0749720000000000    0.1053300000000000 O
   0.0789810000000000    0.5749720000000000    0.1053300000000000 O
   0.9210190000000000    0.4250280000000000    0.8946700000000000 O
   0.4283860000000000    0.4607440000000000    0.3730160000000000 O
   0.5716140000000000    0.5392560000000000    0.6269840000000000 O
   0.9283860000000000    0.0392560000000000    0.6269840000000000 O
   0.0716140000000000    0.9607440000000000    0.3730160000000000 O
   0.6716820000000000    0.9771020000000000    0.5072750000000000 O
   0.3283180000000000    0.0228980000000000    0.4927250000000000 O
   0.1716820000000000    0.5228980000000000    0.4927250000000000 O
   0.8283180000000000    0.4771020000000000    0.5072750000000000 O
   0.1994750000000000    0.9461320000000000    0.2319210000000000 O
   0.8005250000000000    0.0538680000000000    0.7680790000000000 O
   0.6994750000000000    0.5538680000000000    0.7680790000000000 O
   0.3005250000000000    0.4461320000000000    0.2319210000000000 O
