pymatgen with grid density = 1280 / number of atoms
0
Gamma
7 3 2
