Sr2 Li1 H8 O6
1.0
   3.6003110000000000   -0.0044680000000000   -0.0000480000000000
  -0.0126170000000000    6.7580309999999999    0.8229670000000000
  -0.0069420000000000    0.8804670000000000    8.7720129999999994
Sr Li H O
2 1 8 6
direct
   0.0008070000000000    0.6778890000000000    0.7595900000000000 Sr
   0.0005860000000000    0.2616740000000000    0.1117990000000000 Sr
   0.9950280000000000    0.5665110000000000    0.4580540000000000 Li
   0.2169910000000000    0.1096960000000000    0.8077990000000000 H
   0.7887500000000000    0.1094170000000000    0.8074460000000000 H
   0.7834780000000000    0.9159420000000000    0.3726330000000000 H
   0.2132750000000000    0.9158280000000000    0.3728360000000000 H
   0.5034850000000000    0.0173830000000000    0.6295550000000000 H
   0.4978390000000000    0.8936850000000000    0.1747420000000000 H
   0.4950800000000000    0.3914710000000000    0.6378790000000000 H
   0.5024860000000000    0.5920390000000000    0.0590130000000000 H
   0.0030760000000000    0.1852180000000000    0.8436510000000000 O
   0.9981030000000000    0.8634990000000000    0.4430210000000000 O
   0.5023360000000000    0.9570780000000000    0.7408610000000000 O
   0.4990760000000000    0.0146660000000000    0.2186290000000000 O
   0.4979900000000000    0.5360990000000000    0.5942040000000000 O
   0.5016130000000000    0.5127380000000000    0.9774940000000000 O
