pymatgen with grid density = 1356 / number of atoms
0
Gamma
3 3 4
