pymatgen with grid density = 1105 / number of atoms
0
Gamma
4 3 3
