Sr1 Li1 Sn1 Sb1 O6
1.0
   0.0000000000000000   -4.0276373100000002   -4.0276373100000002
   4.0276373100000002   -0.0000000000000000   -4.0276373100000002
   4.0276373100000002   -4.0276373100000002    0.0000000000000000
Sr Li Sn Sb O
1 1 1 1 6
direct
   0.2500000000000000    0.2500000000000000    0.2500000000000000 Sr
   0.7500000000000000    0.7500000000000000    0.7500000000000000 Li
   0.5000000000000000    0.5000000000000000    0.5000000000000000 Sn
  -0.0000000000000000   -0.0000000000000000   -0.0000000000000000 Sb
   0.7542151200000000    0.2457848800000000    0.2457848800000000 O
   0.2457848800000000    0.7542151200000000    0.7542151200000000 O
   0.7542151200000000    0.2457848800000000    0.7542151200000000 O
   0.2457848800000000    0.7542151200000000    0.2457848800000000 O
   0.7542151200000000    0.7542151200000000    0.2457848800000000 O
   0.2457848800000000    0.2457848800000000    0.7542151200000000 O
