Li8 C16 S16 N8 O40 F48
1.0
  -0.0255377800000000    0.0082322200000000    9.5489594199999992
  11.4321249700000003   -0.0806167000000000   -1.9575532899999999
  -3.2626424100000002   18.2053005299999988   -0.0499830600000000
Li C S N O F
8 16 16 8 40 48
direct
  -0.0000000000000000   -0.0000000000000000   -0.0000000000000000 Li
   0.5000000000000000   -0.0000000000000000   -0.0000000000000000 Li
   0.5390153100000000    0.0082003300000000    0.7988368900000000 Li
   0.4609846900000000    0.9917996700000000    0.2011631100000000 Li
   0.5000000000000000   -0.0000000000000000    0.5000000000000000 Li
  -0.0000000000000000   -0.0000000000000000    0.5000000000000000 Li
   0.0391980500000000    0.0103663800000000    0.7014812000000000 Li
   0.9608019500000000    0.9896336200000000    0.2985188000000000 Li
   0.1966495800000000    0.6514826200000000    0.9467023900000000 C
   0.8033504200000000    0.3485173800000000    0.0532976100000000 C
   0.1832619300000000    0.6930671600000000    0.7177796000000000 C
   0.8167380700000000    0.3069328400000000    0.2822204000000000 C
   0.4313930300000000    0.3333096400000000    0.7586338700000000 C
   0.5686069700000000    0.6666903600000000    0.2413661300000000 C
   0.3418614200000000    0.3077028900000000    0.9833470500000000 C
   0.6581385800000000    0.6922971100000000    0.0166529500000000 C
   0.6848740800000001    0.6893389800000000    0.7111611600000000 C
   0.3151259200000000    0.3106610200000000    0.2888388400000000 C
   0.7044051300000000    0.6504550200000000    0.4715762300000000 C
   0.2955948700000000    0.3495449800000000    0.5284237700000000 C
   0.9283091200000000    0.3333151900000000    0.8161489200000001 C
   0.0716908800000000    0.6666848100000000    0.1838510800000000 C
   0.8365247099999999    0.3072106200000000    0.5835165200000000 C
   0.1634752900000000    0.6927893800000000    0.4164834800000000 C
   0.2006203500000000    0.8104960600000000    0.9374380700000000 S
   0.7993796500000000    0.1895039400000000    0.0625619300000000 S
   0.2255614000000000    0.8342701800000000    0.7878879100000000 S
   0.7744386000000000    0.1657298200000000    0.2121120900000000 S
   0.3313732300000000    0.1818047200000000    0.7653750000000000 S
   0.6686267700000000    0.8181952800000000    0.2346250000000000 S
   0.3046147200000000    0.1605093600000000    0.9180018100000000 S
   0.6953852800000000    0.8394906400000000    0.0819981900000000 S
   0.7255914900000000    0.8307611400000000    0.6729626600000000 S
   0.2744085100000000    0.1692388600000000    0.3270373400000000 S
   0.7022981600000000    0.8083517800000000    0.5181598600000000 S
   0.2977018400000000    0.1916482200000000    0.4818401400000000 S
   0.8289829200000000    0.1821216500000000    0.7740205800000000 S
   0.1710170800000000    0.8178783500000000    0.2259794200000000 S
   0.8038915200000000    0.1605965700000000    0.6168298900000000 S
   0.1961084800000000    0.8394034300000000    0.3831701100000000 S
   0.1410068800000000    0.8004751200000000    0.8565847800000000 N
   0.8589931200000001    0.1995248800000000    0.1434152200000000 N
   0.2703008500000000    0.2016296500000000    0.8449499700000001 N
   0.7296991500000000    0.7983703500000000    0.1550500300000000 N
   0.6423083800000000    0.7947376800000000    0.5961158100000000 N
   0.3576916200000000    0.2052623200000000    0.4038841900000000 N
   0.7675380000000001    0.2020853700000000    0.6988597600000001 N
   0.2324620000000000    0.7979146300000000    0.3011402400000000 N
   0.3485647000000000    0.8658075100000000    0.9530084300000000 O
   0.6514353000000001    0.1341924900000000    0.0469915700000000 O
   0.0964103600000000    0.8518493000000000    0.9883032700000000 O
   0.9035896400000000    0.1481507000000000    0.0116967300000000 O
   0.1585811800000000    0.9175790900000000    0.7562291500000000 O
   0.8414188200000000    0.0824209100000000    0.2437708500000000 O
   0.3794186700000000    0.8594731400000000    0.7974229200000000 O
   0.6205813300000000    0.1405268600000000    0.2025770800000000 O
   0.2167763100000000    0.1598862000000000    0.7107104800000000 O
   0.7832236900000000    0.8401138000000000    0.2892895200000000 O
   0.4359646700000000    0.1041203600000000    0.7529724700000000 O
   0.5640353299999999    0.8958796400000000    0.2470275300000000 O
   0.4334267700000000    0.1082963200000000    0.9202199599999999 O
   0.5665732300000000    0.8917036800000000    0.0797800400000000 O
   0.1779770400000000    0.0968377400000000    0.9459327400000000 O
   0.8220229600000000    0.9031622600000000    0.0540672600000000 O
   0.6563390600000000    0.9130443400000000    0.7228866600000000 O
   0.3436609400000000    0.0869556600000000    0.2771133400000000 O
   0.8793758200000000    0.8585513400000000    0.6699724600000000 O
   0.1206241800000000    0.1414486600000000    0.3300275400000000 O
   0.8493848300000000    0.8665729100000000    0.5164127800000000 O
   0.1506151700000000    0.1334270900000000    0.4835872200000000 O
   0.5969715500000000    0.8490257900000000    0.4768530200000000 O
   0.4030284500000000    0.1509742100000000    0.5231469800000000 O
   0.7146622700000000    0.1587380600000000    0.8234798200000000 O
   0.2853377300000000    0.8412619400000000    0.1765201800000000 O
   0.9345935399999999    0.1052889300000000    0.7686429800000000 O
   0.0654064600000000    0.8947110700000001    0.2313570200000000 O
   0.6788018200000000    0.0941106500000000    0.5740515600000000 O
   0.3211981800000000    0.9058893500000000    0.4259484400000000 O
   0.9344032300000000    0.1105742300000000    0.6039541100000000 O
   0.0655967700000000    0.8894257700000000    0.3960458900000000 O
   0.8010078700000000    0.9311875500000000    0.8993054900000000 O
   0.1989921300000000    0.0688124500000000    0.1006945100000000 O
   0.6810410300000000    0.9557243600000001    0.8977690100000000 O
   0.3189589700000000    0.0442756400000000    0.1022309900000000 O
   0.3043706000000000    0.9326464600000000    0.5872911800000000 O
   0.6956294000000000    0.0673535400000000    0.4127088200000000 O
   0.1825029400000000    0.9535261000000000    0.5908961000000000 O
   0.8174970600000000    0.0464739000000000    0.4091039000000000 O
   0.0621751100000000    0.5915618300000000    0.9363881600000000 F
   0.9378248900000000    0.4084381700000000    0.0636118400000000 F
   0.2797399400000000    0.6008237800000000    0.8958257700000000 F
   0.7202600600000000    0.3991762200000000    0.1041742300000000 F
   0.2465700400000000    0.6472595700000000    0.0140997300000000 F
   0.7534299600000000    0.3527404300000000    0.9859002700000000 F
   0.2390962200000000    0.6048057100000001    0.7383715700000000 F
   0.7609037800000000    0.3951942900000000    0.2616284300000000 F
   0.0414637600000000    0.6593090200000000    0.7081201700000000 F
   0.9585362400000000    0.3406909800000000    0.2918798300000000 F
   0.2398792200000000    0.7154075900000000    0.6535805400000000 F
   0.7601207800000001    0.2845924100000000    0.3464194600000000 F
   0.4827740000000000    0.3311671100000000    0.6906744500000001 F
   0.5172260000000000    0.6688328900000000    0.3093255500000000 F
   0.3436121100000000    0.4135336700000000    0.7715663900000000 F
   0.6563878900000000    0.5864663300000000    0.2284336100000000 F
   0.5407497500000000    0.3650622300000000    0.8083961800000000 F
   0.4592502500000000    0.6349377700000000    0.1916038200000000 F
   0.4463049000000000    0.3822317200000000    0.9581472000000000 F
   0.5536951000000000    0.6177682799999999    0.0418528000000000 F
   0.2239489600000000    0.3573008800000000    0.9911363200000000 F
   0.7760510400000000    0.6426991200000000    0.0088636800000000 F
   0.3832415100000000    0.2890157300000000    0.0497326200000000 F
   0.6167584900000000    0.7109842700000000    0.9502673800000000 F
   0.5431499900000000    0.6540583599999999    0.7123713200000000 F
   0.4568500100000000    0.3459416400000000    0.2876286800000000 F
   0.7402536800000000    0.7125109400000000    0.7807075000000000 F
   0.2597463200000000    0.2874890600000000    0.2192925000000000 F
   0.7425695400000000    0.6015735700000000    0.6711576500000001 F
   0.2574304600000000    0.3984264300000000    0.3288423500000000 F
   0.7618753700000001    0.6495570200000000    0.4050492000000000 F
   0.2381246300000000    0.3504429800000000    0.5949508000000000 F
   0.5711540100000000    0.5881710999999999    0.4637117600000000 F
   0.4288459900000000    0.4118289000000000    0.5362882400000000 F
   0.7842545100000000    0.5995144100000001    0.5128271400000000 F
   0.2157454900000000    0.4004855900000000    0.4871728600000000 F
   0.9828958200000000    0.3275185000000000    0.8823367800000000 F
   0.0171041800000000    0.6724815000000000    0.1176632200000000 F
   0.0352158900000000    0.3671176300000000    0.7728143400000000 F
   0.9647841100000000    0.6328823700000000    0.2271856600000000 F
   0.8404306300000000    0.4138601200000000    0.8244409500000000 F
   0.1595693700000000    0.5861398799999999    0.1755590500000000 F
   0.8834269800000000    0.2884948600000000    0.5139491700000000 F
   0.1165730200000000    0.7115051400000000    0.4860508300000000 F
   0.7148041200000000    0.3507008300000000    0.5833211800000000 F
   0.2851958800000000    0.6492991700000000    0.4166788200000000 F
   0.9349989900000000    0.3868112800000000    0.6267591900000000 F
   0.0650010100000000    0.6131887200000000    0.3732408100000000 F
