ALGO = Fast
EDIFF = 0.00095
ENCUT = 520
IBRION = 2
ISIF = 3
ISMEAR = -5
ISPIN = 2
LASPH = True
LMAXMIX = 6
LORBIT = 11
LREAL = Auto
LWAVE = False
MAGMOM = 1*0.0 3*0.002 2*0.001 1*0.002 1*0.016 1*0.303 1*0.01 1*0.006 1*0.01 1*0.004 1*0.006 1*0.018 2*0.005 1*0.004 1*0.018
NELM = 100
NSW = 99
PREC = Accurate
SIGMA = 0.05
