ALGO = Fast
EDIFF = 0.0016
ENCUT = 520
IBRION = 2
ISIF = 3
ISMEAR = -5
ISPIN = 2
LASPH = True
LMAXMIX = 4
LORBIT = 11
LREAL = Auto
LWAVE = False
MAGMOM = 4*-0.008 4*0.007 4*0.008 8*0.254 4*1.102 8*0.811
NELM = 100
NSW = 99
PREC = Accurate
SIGMA = 0.05
