Li4 Zn4 Cl12 O12
1.0
   6.8211079999999997    0.0000000000000000    0.0000000000000000
   0.0000000000000000    7.2632899999999996    0.0000000000000000
   0.0000000000000000    0.0000000000000000   15.5404099999999996
Li Zn Cl O
4 4 12 12
direct
   0.9761150000000000    0.2500000000000000    0.8003510000000000 Li
   0.4761150000000000    0.2500000000000000    0.6996490000000000 Li
   0.0238850000000000    0.7500000000000000    0.1996490000000000 Li
   0.5238850000000000    0.7500000000000000    0.3003510000000000 Li
   0.7003610000000000    0.2500000000000000    0.3196790000000000 Zn
   0.2003610000000000    0.2500000000000000    0.1803210000000000 Zn
   0.2996390000000000    0.7500000000000000    0.6803210000000000 Zn
   0.7996390000000000    0.7500000000000000    0.8196790000000000 Zn
   0.8540730000000000    0.2500000000000000    0.1875440000000000 Cl
   0.3540730000000000    0.2500000000000000    0.3124560000000000 Cl
   0.1459270000000000    0.7500000000000000    0.8124560000000000 Cl
   0.6459270000000000    0.7500000000000000    0.6875440000000000 Cl
   0.7674640000000000    0.9814820000000000    0.3877830000000000 Cl
   0.2674640000000000    0.5185180000000000    0.1122170000000000 Cl
   0.2325360000000000    0.4814820000000000    0.6122170000000000 Cl
   0.7325360000000000    0.0185180000000000    0.8877830000000000 Cl
   0.2325360000000000    0.0185180000000000    0.6122170000000000 Cl
   0.7325360000000000    0.4814820000000000    0.8877830000000000 Cl
   0.7674640000000000    0.5185180000000000    0.3877830000000000 Cl
   0.2674640000000000    0.9814820000000000    0.1122170000000000 Cl
   0.7092580000000001    0.2500000000000000    0.7705360000000000 O
   0.2092580000000000    0.2500000000000000    0.7294640000000000 O
   0.2907420000000000    0.7500000000000000    0.2294640000000000 O
   0.7907419999999999    0.7500000000000000    0.2705360000000000 O
   0.7394680000000000    0.1649570000000000    0.5865420000000000 O
   0.2394680000000000    0.3350430000000000    0.9134580000000000 O
   0.2605320000000000    0.6649570000000000    0.4134580000000000 O
   0.7605320000000000    0.8350430000000000    0.0865420000000000 O
   0.2605320000000000    0.8350430000000000    0.4134580000000000 O
   0.7605320000000000    0.6649570000000000    0.0865420000000000 O
   0.7394680000000000    0.3350430000000000    0.5865420000000000 O
   0.2394680000000000    0.1649570000000000    0.9134580000000000 O
