Rb1 Li1 Mg6 O7
1.0
   8.5323755699999992   -0.0000000000000000    0.0000000000000000
   0.0000000000000000    4.5000302500000000    0.0000000000000000
   0.0000000000000000    0.0000000000000000    4.5000302500000000
Rb Li Mg O
1 1 6 7
direct
   0.0799364200000000    0.5000000000000000    0.5000000000000000 Rb
   0.9876765000000000    0.0000000000000000   -0.0000000000000000 Li
   0.4931818500000000   -0.0000000000000000   -0.0000000000000000 Mg
   0.5183949000000000    0.5000000000000000    0.5000000000000000 Mg
   0.2350533300000000   -0.0000000000000000    0.5000000000000000 Mg
   0.7715637400000001    0.0000000000000000    0.5000000000000000 Mg
   0.2350533300000000    0.5000000000000000    0.0000000000000000 Mg
   0.7715637400000001    0.5000000000000000    0.0000000000000000 Mg
   0.2485802300000000   -0.0000000000000000   -0.0000000000000000 O
   0.7304945800000000   -0.0000000000000000   -0.0000000000000000 O
   0.7403447900000000    0.5000000000000000    0.5000000000000000 O
   0.0004966900000000    0.0000000000000000    0.5000000000000000 O
   0.4685816100000000   -0.0000000000000000    0.5000000000000000 O
   0.0004966900000000    0.5000000000000000   -0.0000000000000000 O
   0.4685816100000000    0.5000000000000000    0.0000000000000000 O
