Rb4 Li24 B8 O24 F4
1.0
   5.1736420000000001    0.0000000000000000    0.0000000000000000
   0.0000000000000000    8.5480250000000009    0.0000000000000000
   0.0000000000000000    0.0000000000000000   16.2719220000000000
Rb Li B O F
4 24 8 24 4
direct
   0.3814640000000000    0.3759710000000000    0.7500000000000000 Rb
   0.1185360000000000    0.8759710000000001    0.7500000000000000 Rb
   0.6185360000000000    0.6240289999999999    0.2500000000000000 Rb
   0.8814640000000000    0.1240290000000000    0.2500000000000000 Rb
   0.8808810000000000    0.2124820000000000    0.6390020000000000 Li
   0.6191190000000000    0.7124819999999999    0.8609980000000000 Li
   0.1191190000000000    0.7875180000000001    0.1390020000000000 Li
   0.3808810000000000    0.2875180000000000    0.3609980000000000 Li
   0.1191190000000000    0.7875180000000001    0.3609980000000000 Li
   0.3808810000000000    0.2875180000000000    0.1390020000000000 Li
   0.8808810000000000    0.2124820000000000    0.8609980000000000 Li
   0.6191190000000000    0.7124819999999999    0.6390020000000000 Li
   0.6369390000000000    0.4275560000000000    0.5578650000000001 Li
   0.8630610000000000    0.9275560000000000    0.9421349999999999 Li
   0.3630610000000000    0.5724440000000000    0.0578650000000000 Li
   0.1369390000000000    0.0724440000000000    0.4421350000000000 Li
   0.3630610000000000    0.5724440000000000    0.4421350000000000 Li
   0.1369390000000000    0.0724440000000000    0.0578650000000000 Li
   0.6369390000000000    0.4275560000000000    0.9421349999999999 Li
   0.8630610000000000    0.9275560000000000    0.5578650000000001 Li
   0.2032860000000000    0.3011270000000000    0.5375529999999999 Li
   0.2967140000000000    0.8011270000000000    0.9624470000000001 Li
   0.7967140000000000    0.6988730000000000    0.0375530000000000 Li
   0.7032860000000000    0.1988730000000000    0.4624470000000000 Li
   0.7967140000000000    0.6988730000000000    0.4624470000000000 Li
   0.7032860000000000    0.1988730000000000    0.0375530000000000 Li
   0.2032860000000000    0.3011270000000000    0.9624470000000001 Li
   0.2967140000000000    0.8011270000000000    0.5375529999999999 Li
   0.0934320000000000    0.5696300000000000    0.5873150000000000 B
   0.4065680000000000    0.0696300000000000    0.9126850000000000 B
   0.9065680000000000    0.4303700000000000    0.0873150000000000 B
   0.5934320000000000    0.9303700000000000    0.4126850000000000 B
   0.9065680000000000    0.4303700000000000    0.4126850000000000 B
   0.5934320000000000    0.9303700000000000    0.0873150000000000 B
   0.0934320000000000    0.5696300000000000    0.9126850000000000 B
   0.4065680000000000    0.0696300000000000    0.5873150000000000 B
   0.3605980000000000    0.5766400000000000    0.5716120000000000 O
   0.1394020000000000    0.0766400000000000    0.9283880000000000 O
   0.6394020000000000    0.4233600000000000    0.0716120000000000 O
   0.8605980000000000    0.9233600000000000    0.4283880000000000 O
   0.6394020000000000    0.4233600000000000    0.4283880000000000 O
   0.8605980000000000    0.9233600000000000    0.0716120000000000 O
   0.3605980000000000    0.5766400000000000    0.9283880000000000 O
   0.1394020000000000    0.0766400000000000    0.5716120000000000 O
   0.9764800000000000    0.4299790000000000    0.6065020000000000 O
   0.5235200000000000    0.9299790000000000    0.8934980000000000 O
   0.0235200000000000    0.5700210000000000    0.1065020000000000 O
   0.4764800000000000    0.0700210000000000    0.3934980000000000 O
   0.0235200000000000    0.5700210000000000    0.3934980000000000 O
   0.4764800000000000    0.0700210000000000    0.1065020000000000 O
   0.9764800000000000    0.4299790000000000    0.8934980000000000 O
   0.5235200000000000    0.9299790000000000    0.6065020000000000 O
   0.5471490000000000    0.2083850000000000    0.5774410000000000 O
   0.9528510000000000    0.7083850000000000    0.9225590000000000 O
   0.4528510000000000    0.7916150000000000    0.0774410000000000 O
   0.0471490000000000    0.2916150000000000    0.4225590000000000 O
   0.4528510000000000    0.7916150000000000    0.4225590000000000 O
   0.0471490000000000    0.2916150000000000    0.0774410000000000 O
   0.5471490000000000    0.2083850000000000    0.9225590000000000 O
   0.9528510000000000    0.7083850000000000    0.5774410000000000 O
   0.5901440000000000    0.6798840000000000    0.7500000000000000 F
   0.9098560000000000    0.1798840000000000    0.7500000000000000 F
   0.4098560000000000    0.3201160000000000    0.2500000000000000 F
   0.0901440000000000    0.8201160000000000    0.2500000000000000 F
