Na1 Li3 Ga4 Si8 O24
1.0
   4.3511369999999996    5.8734880000000000    0.0000000000000000
  -4.3511369999999996    5.8734880000000000    0.0000000000000000
   0.0000000000000000    5.0338630000000002    8.3026020000000003
Na Li Ga Si O
1 3 4 8 24
direct
   0.4183030000000000    0.5816970000000000    0.5000000000000000 Na
   0.8962970000000000    0.1037030000000000    0.0000000000000000 Li
   0.1033900000000000    0.3962760000000000    0.2503570000000000 Li
   0.6037240000000000    0.8966100000000000    0.7496429999999999 Li
   0.0244060000000000    0.9755940000000000    0.5000000000000000 Ga
   0.5245030000000001    0.4754970000000000    0.0000000000000000 Ga
   0.4744120000000000    0.0267960000000000    0.2492260000000000 Ga
   0.9732040000000000    0.5255880000000001    0.7507740000000001 Ga
   0.7152040000000000    0.2817040000000000    0.7077220000000000 Si
   0.2135010000000000    0.7835670000000000    0.2051530000000000 Si
   0.7182960000000000    0.2847960000000000    0.2922780000000000 Si
   0.2164330000000000    0.7864989999999999    0.7948470000000000 Si
   0.7856090000000000    0.7185970000000000    0.0435320000000000 Si
   0.2838510000000000    0.2152830000000000    0.5435250000000000 Si
   0.7847170000000000    0.7161490000000000    0.4564750000000000 Si
   0.2814030000000000    0.2143910000000000    0.9564680000000000 Si
   0.7622870000000000    0.3429080000000000    0.8350850000000000 O
   0.2598740000000000    0.8523260000000000    0.3287130000000000 O
   0.6570920000000000    0.2377130000000000    0.1649150000000000 O
   0.1476740000000000    0.7401260000000000    0.6712870000000000 O
   0.7352710000000000    0.6572070000000000    0.9175740000000000 O
   0.2359750000000000    0.1555710000000000    0.4160880000000000 O
   0.8444290000000000    0.7640250000000000    0.5839120000000000 O
   0.3427930000000000    0.2647290000000000    0.0824260000000000 O
   0.8464290000000000    0.0780590000000000    0.6716340000000000 O
   0.3482750000000000    0.5788050000000000    0.1716420000000000 O
   0.9219410000000000    0.1535710000000000    0.3283660000000000 O
   0.4211950000000000    0.6517250000000000    0.8283580000000000 O
   0.6513390000000000    0.9221030000000000    0.0791100000000000 O
   0.1411460000000000    0.4139630000000000    0.5819290000000000 O
   0.5860370000000000    0.8588540000000000    0.4180710000000000 O
   0.0778970000000000    0.3486610000000000    0.9208900000000000 O
   0.7357290000000000    0.4792410000000000    0.5405430000000000 O
   0.2311530000000000    0.9787410000000000    0.0374750000000000 O
   0.5207590000000000    0.2642710000000000    0.4594570000000000 O
   0.0212590000000000    0.7688469999999999    0.9625250000000000 O
   0.7663330000000000    0.5217940000000000    0.2107480000000000 O
   0.2701480000000000    0.0204960000000000    0.7103170000000000 O
   0.9795040000000000    0.7298519999999999    0.2896830000000000 O
   0.4782060000000000    0.2336670000000000    0.7892520000000000 O
