pymatgen with grid density = 1422 / number of atoms
0
Gamma
3 5 3
