Li4 In2 P4 H2 O16
1.0
   8.3679020000000008    0.0000000000000000    0.0000000000000000
   0.0000000000000000    4.8926230000000004    0.0000000000000000
   0.0000000000000000    1.8017000000000001    7.6377730000000001
Li In P H O
4 2 4 2 16
direct
   0.1332320000000000    0.6350820000000000    0.9059190000000000 Li
   0.3653620000000000    0.1429130000000000    0.4115270000000000 Li
   0.8653620000000000    0.8570870000000000    0.5884730000000000 Li
   0.6332320000000000    0.3649180000000000    0.0940810000000000 Li
   0.5002000000000000    0.7502480000000000    0.7446840000000000 In
   0.0002000000000000    0.2497520000000000    0.2553160000000000 In
   0.3456450000000000    0.1155110000000000    0.0174370000000000 P
   0.1509690000000000    0.6097770000000000    0.5253730000000000 P
   0.6509690000000000    0.3902230000000000    0.4746270000000000 P
   0.8456450000000000    0.8844890000000000    0.9825630000000000 P
   0.4862750000000000    0.7958809999999999    0.2360880000000000 H
   0.9862750000000000    0.2041190000000000    0.7639120000000000 H
   0.1866270000000000    0.2461760000000000    0.0572830000000000 O
   0.3126570000000000    0.7467819999999999    0.5559530000000000 O
   0.8126570000000000    0.2532180000000000    0.4440470000000000 O
   0.6866270000000000    0.7538240000000000    0.9427170000000000 O
   0.4288150000000000    0.9915260000000000    0.2022180000000000 O
   0.0696300000000000    0.4816800000000000    0.7021590000000000 O
   0.5696300000000000    0.5183200000000000    0.2978410000000000 O
   0.9288149999999999    0.0084740000000000    0.7977820000000000 O
   0.3203500000000000    0.8838990000000000    0.9156890000000000 O
   0.1810360000000000    0.3884950000000000    0.4138910000000000 O
   0.6810360000000000    0.6115050000000000    0.5861090000000000 O
   0.8203500000000000    0.1161010000000000    0.0843110000000000 O
   0.4633550000000000    0.3405400000000000    0.9202200000000000 O
   0.0368480000000000    0.8383750000000000    0.4203010000000000 O
   0.5368490000000000    0.1616250000000000    0.5796990000000000 O
   0.9633550000000000    0.6594600000000000    0.0797800000000000 O
