Li8 Sn8 S16 O64
1.0
   9.8449451900000007    0.0000000000000000   -0.0546929900000000
   0.0000000000000000    9.4704201099999992    0.0000000000000000
  -0.0793841300000000    0.0000000000000000   14.8241053199999993
Li Sn S O
8 8 16 64
direct
   0.2042153000000000    0.9628265900000000    0.3683340100000000 Li
   0.2042153000000000    0.5371734100000000    0.8683340100000000 Li
   0.2965882800000000    0.0388874100000000    0.8690373700000000 Li
   0.2965882800000000    0.4611125900000000    0.3690373700000000 Li
   0.7726514300000000    0.4424939800000000    0.1272847800000000 Li
   0.7726514300000000    0.0575060200000000    0.6272847800000000 Li
   0.9525373800000000    0.7651761700000000    0.6283525000000000 Li
   0.9525373800000000    0.7348238300000000    0.1283525000000000 Li
   0.1554942900000000    0.1100520300000000    0.1240862800000000 Sn
   0.1554942900000000    0.3899479700000000    0.6240862800000000 Sn
   0.3623694400000000    0.6072695700000000    0.1283077500000000 Sn
   0.3623694400000000    0.8927304300000000    0.6283077500000001 Sn
   0.6422337700000000    0.1000651200000000    0.3770783400000000 Sn
   0.6422337700000000    0.3999348800000000    0.8770783400000000 Sn
   0.8536237100000000    0.5968727900000000    0.3816213000000000 Sn
   0.8536237100000000    0.9031272100000000    0.8816213000000001 Sn
   0.0566219300000000    0.0613562900000000    0.7355618100000000 S
   0.0566219300000000    0.4386437100000000    0.2355618100000000 S
   0.1475213900000000    0.6865000900000000    0.4834713000000000 S
   0.1475213900000000    0.8134999100000000    0.9834713000000000 S
   0.3513816600000000    0.1854331300000000    0.4783994500000000 S
   0.3513816600000000    0.3145668700000000    0.9783994499999999 S
   0.4325402400000000    0.9301142300000000    0.2351895900000000 S
   0.4325402400000000    0.5698857700000000    0.7351895899999999 S
   0.5903681200000001    0.4196961000000000    0.2746539800000000 S
   0.5903681200000001    0.0803039000000000    0.7746539800000000 S
   0.6704139000000000    0.6866090900000000    0.0096364300000000 S
   0.6704139000000000    0.8133909100000000    0.5096364300000000 S
   0.8440245400000000    0.1945151000000000    0.0016355500000000 S
   0.8440245400000000    0.3054849000000000    0.5016355500000000 S
   0.9085299500000000    0.5822471299999999    0.7780769800000000 S
   0.9085299500000000    0.9177528700000001    0.2780769800000000 S
   0.9903781699999999    0.6814358200000000    0.4752738600000000 O
   0.9903781699999999    0.8185641800000000    0.9752738600000000 O
   0.0057286700000000    0.9700651400000000    0.3441276100000000 O
   0.0057286700000000    0.5299348600000000    0.8441276100000000 O
   0.0050963500000000    0.4746011600000000    0.3308131300000000 O
   0.0050963500000000    0.0253988400000000    0.8308131300000000 O
   0.0428012400000000    0.2145944700000000    0.7241568800000000 O
   0.0428012400000000    0.2854055300000000    0.2241568800000000 O
   0.1635882800000000    0.7505622600000000    0.0754823900000000 O
   0.1635882800000000    0.7494377400000000    0.5754823900000000 O
   0.2030192700000000    0.9590213200000000    0.9820039500000000 O
   0.2030192700000000    0.5409786800000000    0.4820039500000000 O
   0.2016538500000000    0.0173122900000000    0.7398978400000000 O
   0.2016538500000000    0.4826877100000000    0.2398978400000000 O
   0.2053761100000000    0.7694240600000000    0.4112771300000000 O
   0.2053761100000000    0.7305759400000000    0.9112771300000000 O
   0.2922639200000000    0.2663250400000000    0.4041178200000000 O
   0.2922639200000000    0.2336749600000000    0.9041178200000000 O
   0.2870344000000000    0.9745880000000000    0.2459197700000000 O
   0.2870344000000000    0.5254120000000000    0.7459197700000000 O
   0.2995494100000000    0.0383875800000000    0.4775581800000000 O
   0.2995494100000000    0.4616124200000000    0.9775581800000001 O
   0.3269182500000000    0.2511082500000000    0.0688226700000000 O
   0.3269182500000000    0.2488917500000000    0.5688226700000000 O
   0.4386487900000000    0.7724720100000000    0.2328426900000000 O
   0.4386487900000000    0.7275279900000000    0.7328426900000000 O
   0.4966883000000000    0.5320710800000000    0.8290137600000000 O
   0.4966883000000000    0.9679289200000000    0.3290137600000000 O
   0.4925272100000000    0.4784810700000000    0.3364232700000000 O
   0.4925272100000000    0.0215189300000000    0.8364232700000001 O
   0.5074658399999999    0.1832246300000000    0.4712416700000000 O
   0.5074658399999999    0.3167753700000000    0.9712416699999999 O
   0.5251825600000000    0.7032120100000000    0.0246551800000000 O
   0.5251825600000000    0.7967879900000000    0.5246551800000000 O
   0.4995331300000000    0.5014592800000000    0.6614921900000000 O
   0.4995331300000000    0.9985407200000000    0.1614921900000000 O
   0.5637557399999999    0.4484474400000000    0.1781851400000000 O
   0.5637557399999999    0.0515525600000000    0.6781851400000000 O
   0.6025099900000001    0.2607619400000000    0.2827218100000000 O
   0.6025099900000001    0.2392380600000000    0.7827218100000000 O
   0.7015612800000000    0.7279090800000000    0.4256984000000000 O
   0.7015612800000000    0.7720909200000000    0.9256984000000000 O
   0.7036845100000000    0.5322340200000000    0.9861129600000000 O
   0.7036845100000000    0.9677659800000000    0.4861129600000000 O
   0.7327084900000000    0.4815534300000000    0.2902607500000000 O
   0.7327084900000000    0.0184465700000000    0.7902607500000000 O
   0.7579708400000000    0.7196421700000000    0.0861852700000000 O
   0.7579708400000000    0.7803578300000000    0.5861852700000000 O
   0.7730504600000000    0.2482424400000000    0.0795112600000000 O
   0.7730504600000000    0.2517575600000000    0.5795112600000000 O
   0.7705945000000000    0.5165381100000001    0.7906919300000000 O
   0.7705945000000000    0.9834618899999999    0.2906919300000000 O
   0.7950862000000000    0.4562263800000000    0.4832488700000000 O
   0.7950862000000000    0.0437736200000000    0.9832488700000001 O
   0.8070251000000001    0.2214530900000000    0.4162980100000000 O
   0.8070251000000001    0.2785469100000000    0.9162980100000000 O
   0.8908992600000000    0.7450213200000000    0.7849885300000000 O
   0.8908992600000000    0.7549786800000000    0.2849885300000000 O
   0.9486038300000000    0.5644713700000000    0.6834653900000000 O
   0.9486038300000000    0.9355286300000000    0.1834653900000000 O
   0.9764898700000000    0.9827657200000000    0.6667785200000000 O
   0.9764898700000000    0.5172342800000000    0.1667785200000000 O
   0.9923908600000000    0.1973707400000000    0.0089277400000000 O
   0.9923908600000000    0.3026292600000000    0.5089277400000000 O
