Li4 Si1 Ge3 O10
1.0
   5.0645249999999997    0.0000000000000000    0.0000000000000000
   0.0413090000000000    6.2145840000000003    0.0000000000000000
   2.4760040000000001    0.0501220000000000    7.7321130000000000
Li Si Ge O
4 1 3 10
direct
   0.5169840000000000    0.6446930000000000    0.8901000000000000 Li
   0.4154000000000000    0.3522180000000000    0.1093770000000000 Li
   0.0253460000000000    0.3589360000000000    0.8842960000000000 Li
   0.9160020000000000    0.6503690000000000    0.1000500000000000 Li
   0.2320710000000000    0.8445130000000000    0.7081820000000000 Si
   0.9399420000000001    0.1580430000000000    0.2917840000000000 Ge
   0.7287000000000000    0.1517430000000000    0.7075939999999999 Ge
   0.4390980000000000    0.8407220000000000    0.2990720000000000 Ge
   0.5417120000000000    0.9045390000000000    0.7310320000000000 O
   0.2993130000000000    0.0989630000000000    0.2721060000000000 O
   0.0594030000000000    0.0763010000000000    0.7339770000000000 O
   0.8008880000000000    0.8985510000000000    0.2715250000000000 O
   0.1116290000000000    0.6649310000000000    0.8537580000000000 O
   0.9767580000000000    0.3444070000000000    0.1304470000000000 O
   0.6152270000000000    0.3418100000000000    0.8647270000000000 O
   0.4689070000000000    0.6556410000000000    0.1394400000000000 O
   0.2701870000000000    0.7534230000000000    0.5126460000000000 O
   0.7664320000000000    0.2601960000000000    0.4998880000000000 O
