pymatgen with grid density = 1418 / number of atoms
0
Gamma
4 4 1
