Li4 H16 Se4 N4 O16
1.0
   5.1781569999999997    0.0000000000000000    0.0000000000000000
   0.0000000000000000    5.4309440000000002    0.0000000000000000
   0.0000000000000000    0.0000000000000000   17.5186470000000014
Li H Se N O
4 16 4 4 16
direct
   0.8545960000000000    0.1868120000000000    0.5009810000000000 Li
   0.3545960000000000    0.6868120000000000    0.9990190000000000 Li
   0.8545960000000000    0.3131880000000000    0.0009810000000000 Li
   0.3545960000000000    0.8131880000000000    0.4990190000000000 Li
   0.8183300000000000    0.7208520000000000    0.7766750000000000 H
   0.3183300000000000    0.2791480000000000    0.2233250000000000 H
   0.8183300000000000    0.7791480000000000    0.2766750000000000 H
   0.3183300000000000    0.2208520000000000    0.7233250000000000 H
   0.8119850000000000    0.5121890000000000    0.8503370000000000 H
   0.3119850000000000    0.4878110000000000    0.1496630000000000 H
   0.8119850000000000    0.9878110000000000    0.3503370000000000 H
   0.3119850000000000    0.0121890000000000    0.6496630000000000 H
   0.9996530000000000    0.7687100000000000    0.8575030000000000 H
   0.1744450000000000    0.2886830000000000    0.6391200000000000 H
   0.9996530000000000    0.7312900000000000    0.3575030000000000 H
   0.4996530000000000    0.2312900000000000    0.1424970000000000 H
   0.6744450000000000    0.7886830000000000    0.8608800000000000 H
   0.1744450000000000    0.2113170000000000    0.1391200000000000 H
   0.6744450000000000    0.7113170000000000    0.3608800000000000 H
   0.4996530000000000    0.2687100000000000    0.6424970000000000 H
   0.8617560000000000    0.6956930000000000    0.6016330000000000 Se
   0.3617560000000000    0.3043070000000000    0.3983670000000000 Se
   0.8617560000000000    0.8043070000000000    0.1016330000000000 Se
   0.3617560000000000    0.1956930000000000    0.8983670000000000 Se
   0.3277930000000000    0.1974070000000000    0.6639000000000000 N
   0.8277930000000000    0.6974070000000000    0.8361000000000000 N
   0.8277930000000000    0.8025930000000000    0.3361000000000000 N
   0.3277930000000000    0.3025930000000000    0.1639000000000000 N
   0.2508870000000000    0.1959850000000000    0.3162360000000000 O
   0.3029500000000000    0.8910390000000000    0.9056689999999999 O
   0.8029500000000001    0.1089610000000000    0.0943310000000000 O
   0.3029500000000000    0.6089610000000000    0.4056690000000000 O
   0.7508870000000000    0.8040150000000000    0.6837640000000000 O
   0.8029500000000001    0.3910390000000000    0.5943310000000001 O
   0.7508870000000000    0.6959850000000000    0.1837640000000000 O
   0.2508870000000000    0.3040150000000000    0.8162360000000000 O
   0.6829420000000000    0.2335110000000000    0.9040610000000000 O
   0.2246630000000000    0.1526410000000000    0.4718570000000000 O
   0.7246629999999999    0.8473590000000000    0.5281430000000000 O
   0.2246630000000000    0.3473590000000000    0.9718570000000000 O
   0.1829420000000000    0.7335110000000000    0.5959390000000000 O
   0.6829420000000000    0.2664890000000000    0.4040610000000000 O
   0.1829420000000000    0.7664890000000000    0.0959390000000000 O
   0.7246629999999999    0.6526410000000000    0.0281430000000000 O
