pymatgen with grid density = 1794 / number of atoms
0
Gamma
3 3 1
