Li5 Sn5 P6 O24
1.0
   9.1551919999999996    0.0000000000000000    0.0000000000000000
   4.5656359999999996    7.9366490000000001    0.0000000000000000
   4.4345030000000003    2.5327530000000000    7.7450900000000003
Li Sn P O
5 5 6 24
direct
   0.8656750000000000    0.6494280000000000    0.2218350000000000 Li
   0.1803470000000000    0.3177370000000000    0.6565080000000000 Li
   0.8618030000000000    0.1725590000000000    0.6489370000000000 Li
   0.3080030000000000    0.8509400000000000    0.6589320000000000 Li
   0.1970860000000000    0.1867740000000000    0.4433730000000000 Li
   0.0116150000000000    0.0331740000000000    0.9598340000000000 Sn
   0.5014999999999999    0.5010590000000000    0.4843500000000000 Sn
   0.8457450000000000    0.8444930000000000    0.4688900000000000 Sn
   0.6465109999999999    0.6532050000000000    0.0415640000000000 Sn
   0.3427200000000000    0.3318860000000000    0.9745640000000000 Sn
   0.2440330000000000    0.5626510000000000    0.2652760000000000 P
   0.9347130000000000    0.2390600000000000    0.2680820000000000 P
   0.4390580000000000    0.0298320000000000    0.7624670000000000 P
   0.0271320000000000    0.7612250000000000    0.7825620000000000 P
   0.7669750000000000    0.4453610000000000    0.7437070000000000 P
   0.5601250000000000    0.9296660000000000    0.2689690000000000 P
   0.6791120000000000    0.4819350000000000    0.9174140000000000 O
   0.4592120000000000    0.9100440000000000    0.9421130000000000 O
   0.0807340000000000    0.7332050000000000    0.3018110000000000 O
   0.9198070000000000    0.6856260000000000    0.9721630000000000 O
   0.2237770000000000    0.3954760000000000    0.4184170000000000 O
   0.4125740000000000    0.5861540000000000    0.2503600000000000 O
   0.8757620000000000    0.0841810000000000    0.3149990000000000 O
   0.7609650000000000    0.4145230000000000    0.2646880000000000 O
   0.6033340000000000    0.9721940000000000    0.6136420000000000 O
   0.5923830000000000    0.7424430000000000    0.2651480000000000 O
   0.2759870000000000    0.0223630000000000    0.7511460000000000 O
   0.9483500000000000    0.7776230000000000    0.6572960000000000 O
   0.9936320000000000    0.2137640000000000    0.4110420000000000 O
   0.7419660000000000    0.8833490000000001    0.2902700000000000 O
   0.3898770000000000    0.2278720000000000    0.7347170000000000 O
   0.3974370000000000    0.9714860000000000    0.4228120000000000 O
   0.2276200000000000    0.6493070000000000    0.7381330000000000 O
   0.0130770000000000    0.9500200000000000    0.7581369999999999 O
   0.6567180000000000    0.3775480000000000    0.7204540000000000 O
   0.7981180000000000    0.6075590000000000    0.5836420000000000 O
   0.0732290000000000    0.2610400000000000    0.0885020000000000 O
   0.9527330000000001    0.2893400000000000    0.7425240000000000 O
   0.5519810000000001    0.0720660000000000    0.0954210000000000 O
   0.2615740000000000    0.5588290000000000    0.0953030000000000 O
