Li1 Zn4 Sn4 O8
1.0
   3.2166589999999999   -0.1648240000000000    0.6627520000000000
   1.1364110000000001    8.8689780000000003    0.1651670000000000
  -0.1680580000000000   -0.3033690000000000    8.9675689999999992
Li Zn Sn O
1 4 4 8
direct
   0.9983450000000000    0.9903710000000000    0.5143370000000000 Li
   0.6172980000000000    0.0384110000000000    0.2567630000000000 Zn
   0.3790180000000000    0.9416460000000000    0.7716580000000000 Zn
   0.2372260000000000    0.7395150000000000    0.1427960000000000 Zn
   0.7595240000000000    0.2405250000000000    0.8853830000000000 Zn
   0.9240130000000000    0.3080530000000000    0.5356740000000000 Sn
   0.0529710000000000    0.3718410000000000    0.1738980000000000 Sn
   0.9433710000000000    0.6082870000000000    0.8541450000000000 Sn
   0.0711730000000000    0.6726210000000000    0.4922290000000000 Sn
   0.4962680000000000    0.8265830000000000    0.5650390000000000 O
   0.2159110000000000    0.3745210000000000    0.9264120000000000 O
   0.7808470000000000    0.6055620000000000    0.1016960000000000 O
   0.4993230000000000    0.1536850000000000    0.4632660000000000 O
   0.8620570000000000    0.0626140000000000    0.7531639999999999 O
   0.6469890000000000    0.2103930000000000    0.1166900000000000 O
   0.1342910000000000    0.9173370000000000    0.2752280000000000 O
   0.3496500000000000    0.7695590000000000    0.9115230000000000 O
