ALGO = Fast
EDIFF = 0.00055
ENCUT = 520
IBRION = 2
ISIF = 3
ISMEAR = -5
ISPIN = 2
LASPH = True
LORBIT = 11
LREAL = Auto
LWAVE = False
MAGMOM = 2*0.001 1*0.002 1*0.189 1*0.177 1*0.072 2*0.081 1*0.072 1*0.009 1*0.006
NELM = 100
NSW = 99
PREC = Accurate
SIGMA = 0.05
