pymatgen with grid density = 1235 / number of atoms
0
Gamma
3 3 1
