Sr8 Li2 B22 H2 O43
1.0
   6.5427479999999996    0.0000000000000000    0.0000000000000000
  -0.0545480000000000    8.5699790000000000    0.0000000000000000
  -1.0402070000000001   -2.8339729999999999   14.7252410000000005
Sr Li B H O
8 2 22 2 43
direct
   0.8807280000000000    0.9244930000000000    0.7792890000000000 Sr
   0.1192720000000000    0.0755070000000000    0.2207110000000000 Sr
   0.4861360000000000    0.6131870000000000    0.8941770000000000 Sr
   0.5138640000000000    0.3868130000000000    0.1058230000000000 Sr
   0.9589870000000000    0.3959870000000000    0.7335670000000000 Sr
   0.0410130000000000    0.6040130000000000    0.2664330000000000 Sr
   0.3569220000000000    0.0261410000000000    0.6190120000000000 Sr
   0.6430780000000000    0.9738590000000000    0.3809880000000000 Sr
   0.3506260000000000    0.6857120000000000    0.4743760000000000 Li
   0.6493740000000000    0.3142880000000000    0.5256240000000000 Li
   0.4731480000000000    0.2700050000000000    0.8194800000000000 B
   0.5268520000000000    0.7299949999999999    0.1805200000000000 B
   0.2351140000000000    0.3447410000000000    0.5396250000000000 B
   0.7648860000000000    0.6552590000000000    0.4603750000000000 B
   0.6756580000000000    0.6452100000000000    0.6214090000000000 B
   0.3243420000000000    0.3547900000000000    0.3785910000000000 B
   0.7947570000000000    0.2891710000000000    0.9358109999999999 B
   0.2052430000000000    0.7108290000000000    0.0641890000000000 B
   0.0378780000000000    0.6820900000000000    0.5794030000000000 B
   0.9621220000000000    0.3179100000000000    0.4205970000000000 B
   0.3597160000000000    0.7321200000000000    0.6968610000000000 B
   0.6402840000000000    0.2678800000000000    0.3031390000000000 B
   0.9388080000000000    0.6785020000000000    0.9384410000000000 B
   0.0611920000000000    0.3214980000000000    0.0615590000000000 B
   0.1617310000000000    0.2286450000000000    0.8979230000000000 B
   0.8382690000000000    0.7713550000000000    0.1020770000000000 B
   0.4619970000000000    0.4457120000000000    0.6893330000000000 B
   0.5380030000000000    0.5542880000000000    0.3106670000000000 B
   0.3706340000000000    0.9869070000000000    0.8274980000000000 B
   0.6293660000000000    0.0130930000000000    0.1725020000000000 B
   0.8789920000000000    0.0654220000000000    0.5739250000000000 B
   0.1210080000000000    0.9345780000000000    0.4260750000000000 B
   0.5597410000000000    0.9643010000000000    0.9427179999999999 H
   0.4402590000000000    0.0356990000000000    0.0572820000000000 H
   0.8807560000000000    0.6477290000000000    0.8497720000000000 O
   0.1192440000000000    0.3522710000000000    0.1502280000000000 O
   0.9322220000000000    0.2398390000000000    0.8723109999999999 O
   0.0677780000000000    0.7601610000000000    0.1276890000000000 O
   0.5709700000000000    0.7708170000000000    0.6786250000000000 O
   0.4290300000000000    0.2291830000000000    0.3213750000000000 O
   0.9711720000000000    0.0876370000000000    0.6598790000000000 O
   0.0288280000000000    0.9123630000000000    0.3401210000000000 O
   0.5577280000000000    0.3625350000000000    0.7577920000000000 O
   0.4422720000000000    0.6374649999999999    0.2422080000000000 O
   0.6271640000000001    0.6550190000000000    0.5236710000000000 O
   0.3728360000000000    0.3449810000000000    0.4763290000000000 O
   0.9019900000000000    0.6750159999999999    0.6435689999999999 O
   0.0980100000000000    0.3249840000000000    0.3564310000000000 O
   0.2637520000000000    0.3192500000000000    0.8394570000000000 O
   0.7362480000000000    0.6807500000000000    0.1605430000000000 O
   0.2699480000000000    0.8650679999999999    0.7541180000000000 O
   0.7300520000000000    0.1349320000000000    0.2458820000000000 O
   0.6286340000000000    0.4848300000000000    0.6357880000000000 O
   0.3713660000000000    0.5151700000000000    0.3642120000000000 O
   0.5960100000000000    0.3216100000000000    0.9142850000000000 O
   0.4039900000000000    0.6783900000000000    0.0857150000000000 O
   0.0248220000000000    0.3402270000000000    0.5140070000000000 O
   0.9751780000000000    0.6597730000000001    0.4859930000000000 O
   0.2949340000000000    0.3375480000000000    0.6283050000000000 O
   0.7050660000000000    0.6624520000000000    0.3716950000000000 O
   0.6805450000000000    0.1003970000000000    0.5513420000000000 O
   0.3194550000000000    0.8996030000000000    0.4486580000000000 O
   0.2104830000000000    0.0612920000000000    0.8825950000000000 O
   0.7895170000000000    0.9387080000000000    0.1174050000000000 O
   0.2414410000000000    0.7104560000000000    0.6007190000000000 O
   0.7585590000000000    0.2895440000000000    0.3992810000000000 O
   0.8508110000000000    0.3108060000000000    0.0290190000000000 O
   0.1491890000000000    0.6891940000000000    0.9709810000000000 O
   0.3489690000000000    0.5849730000000000    0.7318380000000000 O
   0.6510310000000000    0.4150270000000000    0.2681620000000000 O
   0.7974660000000000    0.6967850000000000    0.0042570000000000 O
   0.2025340000000000    0.3032150000000000    0.9957430000000000 O
   0.4917190000000000    0.1004030000000000    0.7876290000000000 O
   0.5082810000000000    0.8995970000000000    0.2123710000000000 O
   0.5238410000000000    0.9014440000000000    0.8829540000000000 O
   0.4761590000000000    0.0985560000000000    0.1170460000000000 O
   0.0000000000000000    0.0000000000000000    0.5000000000000000 O
