pymatgen with grid density = 1771 / number of atoms
0
Gamma
3 3 1
