Ba1 Li1 Sn1 Bi1 O6
1.0
   0.0000000000000000   -4.1904920900000002   -4.1904920900000002
   4.1904920900000002    0.0000000000000000   -4.1904920900000002
   4.1904920900000002   -4.1904920900000002    0.0000000000000000
Ba Li Sn Bi O
1 1 1 1 6
direct
   0.2500000000000000    0.2500000000000000    0.2500000000000000 Ba
   0.7500000000000000    0.7500000000000000    0.7500000000000000 Li
   0.5000000000000000    0.5000000000000000    0.5000000000000000 Sn
   0.0000000000000000    0.0000000000000000    0.0000000000000000 Bi
   0.7469459899999999    0.2530540100000000    0.2530540100000000 O
   0.2530540100000000    0.7469459899999999    0.7469459899999999 O
   0.7469459899999999    0.2530540100000000    0.7469459899999999 O
   0.2530540100000000    0.7469459899999999    0.2530540100000000 O
   0.7469459899999999    0.7469459899999999    0.2530540100000000 O
   0.2530540100000000    0.2530540100000000    0.7469459899999999 O
