Li2 Ce2 P2 C2 O14
1.0
   7.0002019999999998    0.0000000000000000    0.0000000000000000
   0.0000000000000000    5.2266079999999997    0.0000000000000000
   0.0000000000000000    0.5481650000000000    9.1236529999999991
Li Ce P C O
2 2 2 2 14
direct
   0.5054060000000000    0.7597250000000000    0.8027510000000000 Li
   0.0054060000000000    0.2402750000000000    0.1972490000000000 Li
   0.2386740000000000    0.2199340000000000    0.6574970000000000 Ce
   0.7386740000000001    0.7800660000000000    0.3425030000000000 Ce
   0.7406130000000000    0.2775960000000000    0.5802150000000000 P
   0.2406130000000000    0.7224040000000000    0.4197850000000000 P
   0.2650250000000000    0.2737970000000000    0.9506810000000000 C
   0.7650250000000000    0.7262030000000000    0.0493190000000000 C
   0.7174570000000000    0.6948340000000000    0.9215620000000000 O
   0.2708000000000000    0.0466240000000000    0.8918350000000000 O
   0.3036980000000000    0.4652210000000000    0.8515130000000000 O
   0.9219220000000000    0.2117170000000000    0.6704850000000000 O
   0.5643610000000000    0.1440610000000000    0.6517520000000000 O
   0.2646240000000000    0.8065950000000000    0.5806860000000000 O
   0.7095730000000000    0.5734490000000000    0.5668110000000000 O
   0.2095730000000000    0.4265510000000000    0.4331890000000000 O
   0.7646240000000000    0.1934050000000000    0.4193140000000000 O
   0.0643610000000000    0.8559390000000000    0.3482480000000000 O
   0.4219220000000000    0.7882830000000000    0.3295150000000000 O
   0.8036980000000000    0.5347790000000000    0.1484870000000000 O
   0.7708000000000000    0.9533760000000000    0.1081650000000000 O
   0.2174570000000000    0.3051660000000000    0.0784380000000000 O
