Li2 Sn8 P6 O24
1.0
   4.8474320000000004   -8.3959980000000005    0.0000000000000000
   4.8474320000000004    8.3959980000000005    0.0000000000000000
   0.0000000000000000    0.0000000000000000    7.1056270000000001
Li Sn P O
2 8 6 24
direct
   0.6666670000000000    0.3333330000000000    0.5369270000000000 Li
   0.3333330000000000    0.6666670000000000    0.0369270000000000 Li
   0.2591560000000000    0.2416690000000000    0.2468030000000000 Sn
   0.7408439999999999    0.7583310000000000    0.7468030000000000 Sn
   0.3333330000000000    0.6666670000000000    0.4708790000000000 Sn
   0.0174860000000000    0.2591560000000000    0.7468030000000000 Sn
   0.6666670000000000    0.3333330000000000    0.9708790000000000 Sn
   0.2416690000000000    0.9825140000000000    0.7468030000000000 Sn
   0.9825140000000000    0.7408439999999999    0.2468030000000000 Sn
   0.7583310000000000    0.0174860000000000    0.2468030000000000 Sn
   0.3854350000000000    0.4024410000000000    0.7509850000000000 P
   0.9829930000000000    0.3854350000000000    0.2509850000000000 P
   0.6145650000000000    0.5975590000000000    0.2509850000000000 P
   0.5975590000000000    0.9829930000000000    0.7509850000000000 P
   0.0170070000000000    0.6145650000000000    0.7509850000000000 P
   0.4024410000000000    0.0170070000000000    0.2509850000000000 P
   0.5077540000000000    0.6738680000000000    0.2364420000000000 O
   0.3440490000000000    0.0718300000000000    0.4247180000000000 O
   0.2715790000000000    0.3574330000000000    0.5768190000000000 O
   0.6559510000000000    0.9281700000000001    0.9247180000000000 O
   0.7284210000000000    0.6425670000000000    0.0768190000000000 O
   0.5098660000000000    0.4114200000000000    0.2616190000000000 O
   0.9281700000000001    0.2722190000000000    0.4247180000000000 O
   0.0858540000000000    0.7284210000000000    0.5768190000000000 O
   0.9141460000000000    0.2715790000000000    0.0768190000000000 O
   0.1661150000000000    0.4922460000000000    0.2364420000000000 O
   0.3261320000000000    0.8338850000000000    0.2364420000000000 O
   0.5885800000000000    0.0984460000000000    0.2616190000000000 O
   0.9015540000000000    0.4901340000000000    0.2616190000000000 O
   0.0718300000000000    0.7277810000000000    0.9247180000000000 O
   0.7277810000000000    0.6559510000000000    0.4247180000000000 O
   0.8338850000000000    0.5077540000000000    0.7364420000000000 O
   0.3574330000000000    0.0858540000000000    0.0768190000000000 O
   0.4901340000000000    0.5885800000000000    0.7616190000000000 O
   0.6738680000000000    0.1661150000000000    0.7364420000000000 O
   0.0984460000000000    0.5098660000000000    0.7616190000000000 O
   0.4922460000000000    0.3261320000000000    0.7364420000000000 O
   0.6425670000000000    0.9141460000000000    0.5768190000000000 O
   0.4114200000000000    0.9015540000000000    0.7616190000000000 O
   0.2722190000000000    0.3440490000000000    0.9247180000000000 O
