Li2 Bi6 P12 O40
1.0
   5.2153590000000003   -6.9011579999999997    0.0000000000000000
   5.2153590000000003    6.9011579999999997    0.0000000000000000
   0.0000000000000000    0.0000000000000000   12.9497429999999998
Li Bi P O
2 6 12 40
direct
   0.5664810000000000    0.5664810000000000    0.0000000000000000 Li
   0.4335190000000000    0.4335190000000000    0.5000000000000000 Li
   0.1242850000000000    0.1242850000000000    0.5000000000000000 Bi
   0.7179290000000000    0.2820710000000000    0.2500000000000000 Bi
   0.2820710000000000    0.7179290000000000    0.7500000000000000 Bi
   0.7575010000000000    0.2424990000000000    0.7500000000000000 Bi
   0.2424990000000000    0.7575010000000000    0.2500000000000000 Bi
   0.8757150000000000    0.8757150000000000    0.0000000000000000 Bi
   0.1295710000000000    0.3910360000000000    0.1672620000000000 P
   0.3910360000000000    0.1295710000000000    0.8327380000000000 P
   0.2023580000000000    0.3001280000000000    0.7148310000000000 P
   0.3001280000000000    0.2023580000000000    0.2851690000000000 P
   0.1364110000000000    0.7173860000000000    0.5184530000000001 P
   0.7173860000000000    0.1364110000000000    0.4815470000000000 P
   0.8635890000000001    0.2826140000000000    0.0184530000000000 P
   0.2826140000000000    0.8635890000000001    0.9815469999999999 P
   0.7976420000000000    0.6998720000000000    0.2148310000000000 P
   0.6998720000000000    0.7976420000000000    0.7851690000000000 P
   0.8704290000000000    0.6089639999999999    0.6672620000000000 P
   0.6089639999999999    0.8704290000000000    0.3327380000000000 P
   0.1657060000000000    0.2243020000000000    0.2018910000000000 O
   0.2243020000000000    0.1657060000000000    0.7981090000000000 O
   0.0529830000000000    0.3473500000000000    0.0556310000000000 O
   0.3473500000000000    0.0529830000000000    0.9443690000000000 O
   0.3008740000000000    0.2884450000000000    0.6142339999999999 O
   0.2884450000000000    0.3008740000000000    0.3857660000000000 O
   0.9900980000000000    0.5743660000000000    0.7423980000000000 O
   0.5743660000000000    0.9900980000000000    0.2576020000000000 O
   0.4570520000000000    0.2668960000000000    0.2282650000000000 O
   0.2668960000000000    0.4570520000000000    0.7717349999999999 O
   0.7612420000000000    0.9751750000000000    0.8169840000000000 O
   0.9751750000000000    0.7612420000000000    0.1830160000000000 O
   0.2820390000000000    0.5260040000000000    0.1550970000000000 O
   0.5260040000000000    0.2820390000000000    0.8449030000000000 O
   0.1197530000000000    0.6827810000000000    0.4046890000000000 O
   0.6827810000000000    0.1197530000000000    0.5953110000000000 O
   0.1045780000000000    0.8144850000000000    0.9468870000000000 O
   0.8144850000000000    0.1045780000000000    0.0531130000000000 O
   0.2418230000000000    0.6284810000000000    0.5758080000000000 O
   0.6284810000000000    0.2418230000000000    0.4241920000000000 O
   0.7581770000000000    0.3715190000000000    0.0758080000000000 O
   0.3715190000000000    0.7581770000000000    0.9241920000000000 O
   0.8954220000000001    0.1855150000000000    0.4468870000000000 O
   0.1855150000000000    0.8954220000000001    0.5531130000000000 O
   0.8802470000000000    0.3172190000000000    0.9046890000000000 O
   0.3172190000000000    0.8802470000000000    0.0953110000000000 O
   0.7179610000000000    0.4739960000000000    0.6550970000000000 O
   0.4739960000000000    0.7179610000000000    0.3449030000000000 O
   0.0248250000000000    0.2387580000000000    0.6830160000000000 O
   0.2387580000000000    0.0248250000000000    0.3169840000000000 O
   0.5429480000000000    0.7331040000000000    0.7282650000000001 O
   0.7331040000000000    0.5429480000000000    0.2717350000000000 O
   0.0099020000000000    0.4256340000000000    0.2423980000000000 O
   0.4256340000000000    0.0099020000000000    0.7576020000000000 O
   0.6991260000000000    0.7115550000000000    0.1142340000000000 O
   0.7115550000000000    0.6991260000000000    0.8857660000000001 O
   0.9470170000000000    0.6526500000000000    0.5556310000000000 O
   0.6526500000000000    0.9470170000000000    0.4443690000000000 O
   0.8342940000000000    0.7756980000000000    0.7018910000000000 O
   0.7756980000000000    0.8342940000000000    0.2981090000000000 O
