Li6 Sn4 P14 O42
1.0
   6.7616430000000003    0.0000000000000000    0.0000000000000000
  -3.2162299999999999    6.7787059999999997    0.0000000000000000
  -1.1751490000000000   -1.2898940000000001   20.3982139999999994
Li Sn P O
6 4 14 42
direct
   0.2299990000000000    0.8098680000000000    0.7507110000000000 Li
   0.4448910000000000    0.2557230000000000    0.5658900000000000 Li
   0.7543050000000000    0.8534920000000000    0.9132490000000000 Li
   0.2456950000000000    0.1465080000000000    0.0867510000000000 Li
   0.5551090000000000    0.7442770000000000    0.4341100000000000 Li
   0.7700010000000000    0.1901320000000000    0.2492890000000000 Li
   0.5969520000000000    0.8042330000000000    0.6212910000000000 Sn
   0.3728030000000000    0.1538360000000000    0.8808250000000000 Sn
   0.6271970000000000    0.8461640000000000    0.1191750000000000 Sn
   0.4030480000000000    0.1957670000000000    0.3787090000000000 Sn
   0.2705770000000000    0.7020210000000000    0.9393740000000000 P
   0.1760570000000000    0.7736670000000000    0.4849410000000000 P
   0.0724490000000000    0.7116710000000001    0.0667710000000000 P
   0.0497970000000000    0.4273160000000000    0.3959200000000000 P
   0.0491700000000000    0.1161960000000000    0.7230650000000000 P
   0.3503230000000000    0.8243060000000000    0.2614420000000000 P
   0.4705770000000000    0.4629160000000000    0.7562800000000000 P
   0.5294230000000000    0.5370840000000000    0.2437200000000000 P
   0.6496769999999999    0.1756940000000000    0.7385580000000000 P
   0.9508300000000000    0.8838040000000000    0.2769350000000000 P
   0.9502030000000000    0.5726840000000000    0.6040800000000000 P
   0.9275510000000000    0.2883290000000000    0.9332290000000000 P
   0.8239430000000000    0.2263330000000000    0.5150590000000000 P
   0.7294230000000000    0.2979790000000000    0.0606260000000000 P
   0.1317830000000000    0.7602610000000000    0.9916400000000000 O
   0.0114340000000000    0.7112170000000000    0.5422900000000000 O
   0.2108150000000000    0.7625490000000000    0.8747980000000000 O
   0.1183270000000000    0.6655930000000000    0.6605190000000000 O
   0.1731280000000000    0.4640780000000000    0.9433640000000000 O
   0.9540419999999999    0.1111890000000000    0.9064940000000000 O
   0.0266640000000000    0.6244810000000000    0.4228810000000000 O
   0.2173820000000000    0.9812680000000000    0.4719500000000000 O
   0.0944770000000000    0.7748520000000000    0.2493810000000000 O
   0.5093380000000000    0.7823400000000000    0.9632490000000000 O
   0.1023700000000000    0.0065660000000000    0.7763450000000000 O
   0.2691540000000000    0.3062740000000000    0.7060890000000000 O
   0.3664360000000000    0.7240960000000000    0.5004999999999999 O
   0.2263940000000000    0.6420810000000000    0.1008890000000000 O
   0.2891730000000000    0.4759300000000000    0.3883010000000000 O
   0.4066130000000000    0.4256890000000000    0.8258290000000000 O
   0.4401650000000000    0.9122820000000000    0.3301180000000000 O
   0.4768080000000000    0.9466030000000000    0.2073680000000000 O
   0.0536230000000000    0.9967360000000000    0.3411130000000000 O
   0.5367550000000000    0.6655950000000000    0.7334530000000000 O
   0.3328980000000000    0.6036750000000000    0.2542080000000000 O
   0.6671020000000000    0.3963250000000000    0.7457920000000000 O
   0.4632450000000000    0.3344050000000000    0.2665470000000000 O
   0.9463770000000000    0.0032640000000000    0.6588870000000000 O
   0.5231920000000000    0.0533970000000000    0.7926320000000000 O
   0.5598350000000000    0.0877180000000000    0.6698820000000000 O
   0.5933870000000000    0.5743110000000000    0.1741710000000000 O
   0.7108270000000000    0.5240700000000000    0.6116990000000000 O
   0.7736060000000000    0.3579190000000000    0.8991110000000000 O
   0.6335640000000000    0.2759040000000000    0.4995000000000000 O
   0.7308460000000000    0.6937260000000000    0.2939110000000000 O
   0.8976300000000000    0.9934340000000000    0.2236550000000000 O
   0.4906620000000000    0.2176600000000000    0.0367510000000000 O
   0.9055230000000000    0.2251480000000000    0.7506190000000000 O
   0.7826180000000000    0.0187320000000000    0.5280500000000000 O
   0.9733360000000000    0.3755190000000000    0.5771190000000000 O
   0.0459580000000000    0.8888110000000000    0.0935060000000000 O
   0.8268720000000001    0.5359220000000000    0.0566360000000000 O
   0.8816730000000000    0.3344070000000000    0.3394810000000000 O
   0.7891850000000000    0.2374510000000000    0.1252020000000000 O
   0.9885659999999999    0.2887830000000000    0.4577100000000000 O
   0.8682170000000000    0.2397390000000000    0.0083600000000000 O
