Li6 Sb2 P4 O16
1.0
   6.4681420000000003    0.0000000000000000    0.0000000000000000
   0.0000000000000000    4.7680179999999996    0.0000000000000000
   0.0000000000000000    0.2702900000000000   10.5888760000000008
Li Sb P O
6 2 4 16
direct
   0.0000000000000000    0.0000000000000000    0.0000000000000000 Li
   0.5000000000000000    0.0000000000000000    0.0000000000000000 Li
   0.2500000000000000    0.5084780000000000    0.7857270000000000 Li
   0.0000000000000000    0.5000000000000000    0.5000000000000000 Li
   0.5000000000000000    0.5000000000000000    0.5000000000000000 Li
   0.7500000000000000    0.4915220000000000    0.2142730000000000 Li
   0.7500000000000000    0.0141590000000000    0.7182580000000000 Sb
   0.2500000000000000    0.9858410000000000    0.2817420000000000 Sb
   0.7500000000000000    0.5861800000000000    0.9171400000000000 P
   0.2500000000000000    0.0969070000000000    0.5903050000000000 P
   0.7500000000000000    0.9030930000000000    0.4096950000000000 P
   0.2500000000000000    0.4138200000000000    0.0828600000000000 P
   0.2500000000000000    0.2838820000000000    0.9514910000000000 O
   0.7500000000000000    0.2637100000000000    0.9211030000000000 O
   0.9405260000000000    0.7125130000000000    0.8386340000000000 O
   0.5594740000000000    0.7125130000000000    0.8386340000000000 O
   0.4422300000000000    0.2272520000000000    0.6550220000000000 O
   0.0577700000000000    0.2272520000000000    0.6550220000000000 O
   0.2500000000000000    0.7779640000000000    0.5872720000000000 O
   0.7500000000000000    0.7584480000000000    0.5485520000000000 O
   0.2500000000000000    0.2415520000000000    0.4514480000000000 O
   0.7500000000000000    0.2220360000000000    0.4127280000000000 O
   0.9422300000000000    0.7727480000000000    0.3449780000000000 O
   0.5577700000000000    0.7727480000000000    0.3449780000000000 O
   0.4405260000000000    0.2874870000000000    0.1613660000000000 O
   0.0594740000000000    0.2874870000000000    0.1613660000000000 O
   0.2500000000000000    0.7362900000000000    0.0788970000000000 O
   0.7500000000000000    0.7161180000000000    0.0485090000000000 O
