pymatgen with grid density = 1209 / number of atoms
0
Gamma
4 4 4
