Sr1 Li1 Al2 B2 O7
1.0
   4.7854140000000003    0.0046520000000000    7.1866050000000001
   2.1735169999999999    4.2683830000000000    7.1894309999999999
  -0.0009100000000000    0.0051890000000000    8.6357759999999999
Sr Li Al B O
1 1 2 2 7
direct
   0.0061020000000000    0.0076030000000000    0.0060260000000000 Sr
   0.6636670000000000    0.6657740000000000    0.6641200000000000 Li
   0.4258990000000000    0.4262870000000000    0.4256930000000000 Al
   0.5634150000000000    0.5638690000000000    0.5635760000000000 Al
   0.2659080000000000    0.2663230000000000    0.2659620000000000 B
   0.7504490000000000    0.7505320000000000    0.7499690000000000 B
   0.0319380000000000    0.6504750000000000    0.4983940000000000 O
   0.4986230000000000    0.0325300000000000    0.6498680000000000 O
   0.6500560000000000    0.4991070000000000    0.0318410000000000 O
   0.4951160000000000    0.4958170000000000    0.4958040000000000 O
   0.3584990000000000    0.9562870000000000    0.4905220000000000 O
   0.4904890000000000    0.3586990000000000    0.9561340000000000 O
   0.9560890000000000    0.4907580000000000    0.3583400000000000 O
