ALGO = Fast
EDIFF = 0.0048000000000000004
ENCUT = 520
IBRION = 2
ISIF = 3
ISMEAR = -5
ISPIN = 2
LASPH = True
LMAXMIX = 6
LORBIT = 11
LREAL = Auto
LWAVE = False
MAGMOM = 4*0.0 1*6.93 1*6.924 5*6.929 1*6.92 1*6.924 1*6.929 1*6.93 1*6.92 1*6.924 1*6.93 1*6.925 1*6.929 1*6.924 2*6.92 1*6.925 1*6.929 2*6.925 1*6.93 3*0.001 1*0.002 2*0.001 2*0.002 3*0.001 2*0.002 1*0.001 2*0.003 1*0.001 1*0.01 1*0.003 1*0.015 2*0.001 3*0.003 1*0.015 2*0.002 1*0.001 3*0.006 1*0.001 1*0.015 1*0.001 2*0.002 2*0.001 1*0.005 2*0.001 1*0.002 1*0.001 1*0.006 1*0.001 1*0.003 1*0.01 1*0.001 1*0.005 1*0.002 1*0.01 1*0.002 1*0.003 1*0.01 1*0.001 1*0.003 1*0.015 1*0.005 1*0.001 1*0.003 2*0.001 1*0.005 1*0.001 2*0.003 1*0.001
NELM = 100
NSW = 99
PREC = Accurate
SIGMA = 0.05
