pymatgen with grid density = 1399 / number of atoms
0
Gamma
4 3 2
