K4 Li12 Ge4 O16
1.0
   5.8262636399999996    0.0040713600000000    0.0025095100000000
   1.3283909400000000    7.3220539100000002    0.0073732500000000
   2.3036838999999998    0.7125640600000001    9.5783207899999994
K Li Ge O
4 12 4 16
direct
   0.4964345900000000    0.1169927700000000    0.6163629800000000 K
   0.5035654100000000    0.8830072300000000    0.3836370200000000 K
   0.4580210300000000    0.3593234800000000    0.8720518100000000 K
   0.5419789699999999    0.6406765200000000    0.1279481900000000 K
   0.9775076200000000    0.8230946700000000    0.1130405900000000 Li
   0.0224923800000000    0.1769053300000000    0.8869594100000000 Li
   0.3049434400000000    0.3242996400000000    0.3538735500000000 Li
   0.6950565600000000    0.6757003600000000    0.6461264500000000 Li
   0.9296389300000000    0.5472953800000000    0.8764241100000000 Li
   0.0703610700000000    0.4527046200000000    0.1235758900000000 Li
   0.0364207700000000    0.9267931800000000    0.6278625600000000 Li
   0.3124686900000000    0.0512508300000000    0.1033711900000000 Li
   0.6916447400000000    0.4435666700000000    0.3960813600000000 Li
   0.3083552600000000    0.5564333299999999    0.6039186400000000 Li
   0.9635792300000000    0.0732068200000000    0.3721374400000000 Li
   0.6875313100000000    0.9487491700000000    0.8966288100000001 Li
   0.9417672100000000    0.2907414100000000    0.6343794500000000 Ge
   0.0582327900000000    0.7092585900000000    0.3656205500000000 Ge
   0.3336406200000000    0.7935707500000000    0.8517287200000000 Ge
   0.6663593799999999    0.2064292500000000    0.1482712800000000 Ge
   0.6789038200000000    0.2111532100000000    0.3251880400000000 O
   0.3210961800000000    0.7888467900000000    0.6748119600000000 O
   0.8639543600000000    0.3384099000000000    0.0340776100000000 O
   0.1360456400000000    0.6615901000000000    0.9659223900000000 O
   0.6400269000000000    0.7035686000000000    0.8492317900000000 O
   0.3599731000000000    0.2964314000000000    0.1507682100000000 O
   0.6884407000000000    0.4356757500000000    0.5929992800000000 O
   0.3115593000000000    0.5643242500000000    0.4070007200000000 O
   0.1533473300000000    0.8912384600000000    0.2425098900000000 O
   0.8466526700000000    0.1087615400000000    0.7574901100000000 O
   0.8813059900000000    0.8268315600000000    0.5094482800000000 O
   0.1186940100000000    0.1731684400000000    0.4905517200000000 O
   0.8940344200000000    0.6037735800000000    0.2772186900000000 O
   0.1059655800000000    0.3962264200000000    0.7227813100000000 O
   0.6938234000000000    0.9856919800000000    0.0898479800000000 O
   0.3061766000000000    0.0143080200000000    0.9101520200000000 O
