Li2 Gd2 P8 O24
1.0
   3.5778360000000000    8.2768929999999994    0.0000000000000000
  -3.5778360000000000    8.2768929999999994    0.0000000000000000
   0.0000000000000000    5.7851699999999999    7.9010400000000001
Li Gd P O
2 2 8 24
direct
   0.2050110000000000    0.7949889999999999    0.7500000000000000 Li
   0.7949889999999999    0.2050110000000000    0.2500000000000000 Li
   0.7026470000000000    0.2973530000000000    0.7500000000000000 Gd
   0.2973530000000000    0.7026470000000000    0.2500000000000000 Gd
   0.7993170000000001    0.4933200000000000    0.3046110000000000 P
   0.5066800000000000    0.2006820000000000    0.1953890000000000 P
   0.2006830000000000    0.5066800000000000    0.6953890000000000 P
   0.4933200000000000    0.7993180000000000    0.8046110000000000 P
   0.8093350000000000    0.9154330000000001    0.6154910000000000 P
   0.0845670000000000    0.1906650000000000    0.8845090000000000 P
   0.1906650000000000    0.0845670000000000    0.3845090000000000 P
   0.9154330000000001    0.8093350000000000    0.1154910000000000 P
   0.7419450000000000    0.5099860000000001    0.4729400000000000 O
   0.4900140000000000    0.2580550000000000    0.0270600000000000 O
   0.2580550000000000    0.4900140000000000    0.5270600000000000 O
   0.5099860000000001    0.7419450000000000    0.9729400000000000 O
   0.6611170000000000    0.4851010000000000    0.2712060000000000 O
   0.5148990000000000    0.3388830000000000    0.2287940000000000 O
   0.3388830000000000    0.5148990000000000    0.7287940000000001 O
   0.4851010000000000    0.6611170000000000    0.7712059999999999 O
   0.1007720000000000    0.6745430000000000    0.1829270000000000 O
   0.3254570000000000    0.8992280000000000    0.3170730000000000 O
   0.8992280000000000    0.3254570000000000    0.8170730000000000 O
   0.6745430000000000    0.1007720000000000    0.6829270000000000 O
   0.2812980000000000    0.0325220000000000    0.7682590000000000 O
   0.9674779999999999    0.7187020000000000    0.7317410000000000 O
   0.7187020000000000    0.9674779999999999    0.2317410000000000 O
   0.0325220000000000    0.2812980000000000    0.2682590000000000 O
   0.8370730000000000    0.6728730000000001    0.1508170000000000 O
   0.3271270000000000    0.1629270000000000    0.3491830000000000 O
   0.1629270000000000    0.3271270000000000    0.8491830000000000 O
   0.6728730000000001    0.8370730000000000    0.6508170000000000 O
   0.0612400000000000    0.0727180000000000    0.0704440000000000 O
   0.9272820000000001    0.9387600000000000    0.4295560000000000 O
   0.9387600000000000    0.9272820000000001    0.9295560000000000 O
   0.0727180000000000    0.0612400000000000    0.5704440000000000 O
