ALGO = Fast
EDIFF = 0.0014
ENCUT = 520
IBRION = 2
ISIF = 3
ISMEAR = -5
ISPIN = 2
LASPH = True
LMAXMIX = 4
LORBIT = 11
LREAL = Auto
LWAVE = False
MAGMOM = 2*-0.002 6*0.125 2*0.032 2*-0.019 1*0.33 1*0.329 6*0.252 2*0.251 1*0.25 3*0.251 2*0.408
NELM = 100
NSW = 99
PREC = Accurate
SIGMA = 0.05
