Li4 Er2 P2 C2 O14
1.0
   6.7394980000000002    0.0000000000000000    0.0000000000000000
   0.0000000000000000    4.9076160000000000    0.0000000000000000
   0.0000000000000000    0.5309380000000000    9.0729629999999997
Li Er P C O
4 2 2 2 14
direct
   0.5135840000000000    0.7969820000000000    0.7993310000000000 Li
   0.9864160000000000    0.7969820000000000    0.7993310000000000 Li
   0.4864160000000000    0.2030180000000000    0.2006690000000000 Li
   0.0135840000000000    0.2030180000000000    0.2006690000000000 Li
   0.2500000000000000    0.2571120000000000    0.6365290000000000 Er
   0.7500000000000000    0.7428880000000000    0.3634710000000000 Er
   0.7500000000000000    0.2753360000000000    0.5927770000000000 P
   0.2500000000000000    0.7246640000000000    0.4072230000000000 P
   0.2500000000000000    0.2578630000000000    0.9365030000000000 C
   0.7500000000000000    0.7421370000000000    0.0634970000000000 C
   0.7500000000000000    0.7277480000000000    0.9244230000000000 O
   0.2500000000000000    0.0248940000000000    0.8718210000000000 O
   0.2500000000000000    0.4790520000000000    0.8453000000000001 O
   0.9358360000000000    0.1460150000000000    0.6664510000000000 O
   0.5641640000000000    0.1460150000000000    0.6664510000000000 O
   0.2500000000000000    0.7676269999999999    0.5774460000000000 O
   0.7500000000000000    0.5905190000000000    0.6030530000000000 O
   0.2500000000000000    0.4094810000000000    0.3969470000000000 O
   0.7500000000000000    0.2323730000000000    0.4225540000000000 O
   0.4358360000000000    0.8539850000000000    0.3335490000000000 O
   0.0641640000000000    0.8539850000000000    0.3335490000000000 O
   0.7500000000000000    0.5209480000000000    0.1547000000000000 O
   0.7500000000000000    0.9751060000000000    0.1281790000000000 O
   0.2500000000000000    0.2722520000000000    0.0755770000000000 O
