pymatgen with grid density = 1476 / number of atoms
0
Gamma
1 4 2
