Li12 Pr8 B12 O36
1.0
  14.2775160000000003    0.0000000000000000    0.0000000000000000
   0.0000000000000000    5.8856359999999999    0.0000000000000000
   0.0000000000000000    3.7304450000000000    8.7030340000000006
Li Pr B O
12 8 12 36
direct
   0.8882460000000000    0.9484890000000000    0.2080690000000000 Li
   0.3882460000000000    0.0515110000000000    0.2919310000000000 Li
   0.1117540000000000    0.0515110000000000    0.7919310000000001 Li
   0.6117540000000000    0.9484890000000000    0.7080689999999999 Li
   0.8347100000000000    0.4250400000000000    0.0034030000000000 Li
   0.3347100000000000    0.5749600000000000    0.4965970000000000 Li
   0.1652900000000000    0.5749600000000000    0.9965970000000000 Li
   0.6652900000000000    0.4250400000000000    0.5034030000000000 Li
   0.7850920000000000    0.5797720000000000    0.2107730000000000 Li
   0.2850920000000000    0.4202280000000000    0.2892270000000000 Li
   0.2149080000000000    0.4202280000000000    0.7892270000000000 Li
   0.7149080000000000    0.5797720000000000    0.7107730000000000 Li
   0.5029260000000000    0.6532270000000000    0.1589320000000000 Pr
   0.0029260000000000    0.3467730000000000    0.3410680000000000 Pr
   0.4970740000000000    0.3467730000000000    0.8410680000000000 Pr
   0.9970740000000000    0.6532270000000000    0.6589320000000000 Pr
   0.6639740000000000    0.0583550000000000    0.3079890000000000 Pr
   0.1639740000000000    0.9416450000000000    0.1920110000000000 Pr
   0.3360260000000000    0.9416450000000000    0.6920110000000000 Pr
   0.8360260000000000    0.0583550000000000    0.8079890000000000 Pr
   0.9849880000000000    0.7361290000000000    0.0138140000000000 B
   0.4849880000000000    0.2638710000000000    0.4861860000000000 B
   0.0150120000000000    0.2638710000000000    0.9861860000000000 B
   0.5150120000000000    0.7361290000000000    0.5138140000000000 B
   0.6771590000000000    0.1136390000000000    0.9831380000000000 B
   0.1771590000000000    0.8863610000000000    0.5168620000000000 B
   0.3228410000000000    0.8863610000000000    0.0168620000000000 B
   0.8228410000000000    0.1136390000000000    0.4831380000000000 B
   0.6635500000000000    0.6152280000000000    0.9716910000000000 B
   0.1635500000000000    0.3847720000000000    0.5283090000000000 B
   0.3364500000000000    0.3847720000000000    0.0283090000000000 B
   0.8364500000000000    0.6152280000000000    0.4716910000000000 B
   0.8972570000000000    0.6903359999999999    0.0807850000000000 O
   0.3972570000000000    0.3096640000000000    0.4192150000000000 O
   0.1027430000000000    0.3096640000000000    0.9192150000000000 O
   0.6027430000000000    0.6903359999999999    0.5807850000000000 O
   0.5068490000000000    0.8425660000000000    0.3548060000000000 O
   0.0068490000000000    0.1574340000000000    0.1451940000000000 O
   0.4931510000000000    0.1574340000000000    0.6451940000000000 O
   0.9931510000000000    0.8425660000000000    0.8548060000000000 O
   0.5646010000000000    0.3229870000000000    0.3941630000000000 O
   0.0646010000000000    0.6770130000000000    0.1058370000000000 O
   0.4353990000000000    0.6770130000000000    0.6058370000000000 O
   0.9353990000000000    0.3229870000000000    0.8941630000000000 O
   0.6696820000000000    0.2125710000000000    0.8237400000000000 O
   0.1696820000000000    0.7874290000000000    0.6762600000000000 O
   0.3303180000000000    0.7874290000000000    0.1762600000000000 O
   0.8303180000000000    0.2125710000000000    0.3237400000000000 O
   0.7624760000000000    0.0942030000000000    0.0554820000000000 O
   0.2624760000000000    0.9057970000000000    0.4445180000000000 O
   0.2375240000000000    0.9057970000000000    0.9445180000000000 O
   0.7375240000000000    0.0942030000000000    0.5554820000000000 O
   0.5951850000000000    0.0424510000000000    0.0694110000000000 O
   0.0951850000000000    0.9575490000000000    0.4305890000000000 O
   0.4048150000000000    0.9575490000000000    0.9305890000000000 O
   0.9048150000000000    0.0424510000000000    0.5694110000000000 O
   0.7421590000000000    0.6817820000000000    0.8789820000000000 O
   0.2421590000000000    0.3182180000000000    0.6210180000000000 O
   0.2578410000000000    0.3182180000000000    0.1210180000000000 O
   0.7578410000000000    0.6817820000000000    0.3789820000000000 O
   0.5746790000000001    0.6629140000000000    0.9067510000000000 O
   0.0746790000000000    0.3370860000000000    0.5932490000000000 O
   0.4253210000000000    0.3370860000000000    0.0932490000000000 O
   0.9253209999999999    0.6629140000000000    0.4067510000000000 O
   0.6687710000000000    0.5047660000000000    0.1307910000000000 O
   0.1687710000000000    0.4952340000000000    0.3692090000000000 O
   0.3312290000000000    0.4952340000000000    0.8692090000000000 O
   0.8312290000000000    0.5047660000000000    0.6307910000000000 O
