Li4 Si16 H108 C36 O12
1.0
  -9.6515064800000001    0.0000000000000000    2.4427519700000002
  -0.0051040200000000    0.0000000000000000  -13.1114438100000008
   0.0000000000000000  -16.5373489499999984    0.0000000000000000
Li Si H C O
4 16 108 36 12
direct
   0.2935604700000000    0.5761528200000000    0.7490785500000000 Li
   0.7064395300000000    0.9238471800000000    0.2490785500000000 Li
   0.7064395300000000    0.4238471800000000    0.2509214500000000 Li
   0.2935604700000000    0.0761528200000000    0.7509214500000000 Li
   0.2357411100000000    0.3893007400000000    0.6283728100000000 Si
   0.7642588900000000    0.1106992600000000    0.1283728100000000 Si
   0.7642588900000000    0.6106992600000000    0.3716271900000000 Si
   0.2357411100000000    0.8893007400000000    0.8716271900000000 Si
   0.4959443200000000    0.4351671100000000    0.7832475200000000 Si
   0.5040556800000000    0.0648328900000000    0.2832475200000000 Si
   0.5040556800000000    0.5648328900000000    0.2167524800000000 Si
   0.4959443200000000    0.9351671100000000    0.7167524800000000 Si
   0.1393213200000000    0.3701013100000000    0.8353803500000000 Si
   0.8606786800000000    0.1298986900000000    0.3353803500000000 Si
   0.8606786800000000    0.6298986900000000    0.1646196500000000 Si
   0.1393213200000000    0.8701013100000000    0.6646196500000000 Si
   0.2906823100000000    0.3114038800000000    0.7479912300000000 Si
   0.7093176900000000    0.1885961200000000    0.2479912300000000 Si
   0.7093176900000000    0.6885961200000000    0.2520087700000000 Si
   0.2906823100000000    0.8114038800000000    0.7520087700000000 Si
   0.4378932900000000    0.3687471100000000    0.5440159400000000 H
   0.5621067100000000    0.1312528900000000    0.0440159400000000 H
   0.5621067100000000    0.6312528900000000    0.4559840600000000 H
   0.4378932900000000    0.8687471100000000    0.9559840600000000 H
   0.2889744900000000    0.2635342200000000    0.5291152800000000 H
   0.7110255100000000    0.2364657800000000    0.0291152800000000 H
   0.7110255100000000    0.7364657800000000    0.4708847200000000 H
   0.2889744900000000    0.7635342200000000    0.9708847200000000 H
   0.2991080900000000    0.3857694900000000    0.4809943500000000 H
   0.7008919100000000    0.1142305100000000    0.9809943500000000 H
   0.7008919100000000    0.6142305100000000    0.5190056500000000 H
   0.2991080900000000    0.8857694900000000    0.0190056500000000 H
   0.0311363900000000    0.3875487600000000    0.5403097300000000 H
   0.9688636100000000    0.1124512400000000    0.0403097300000000 H
   0.9688636100000000    0.6124512400000000    0.4596902700000000 H
   0.0311363900000000    0.8875487600000000    0.9596902700000000 H
   0.9995596300000000    0.2734118700000000    0.6020372700000000 H
   0.0004403700000000    0.2265881300000000    0.1020372700000000 H
   0.0004403700000000    0.7265881300000000    0.3979627300000000 H
   0.9995596300000000    0.7734118700000000    0.8979627300000000 H
   0.9883750400000000    0.3959720800000000    0.6446847800000000 H
   0.0116249600000000    0.1040279200000000    0.1446847800000000 H
   0.0116249600000000    0.6040279200000001    0.3553152200000000 H
   0.9883750400000000    0.8959720799999999    0.8553152200000000 H
   0.7248081900000000    0.5255008799999999    0.7233463999999999 H
   0.2751918100000000    0.9744991200000001    0.2233464000000000 H
   0.2751918100000000    0.4744991200000000    0.2766536000000000 H
   0.7248081900000000    0.0255008800000000    0.7766536000000001 H
   0.6749622500000000    0.3919839800000000    0.6924156000000000 H
   0.3250377500000000    0.1080160200000000    0.1924156000000000 H
   0.3250377500000000    0.6080160200000000    0.3075844000000000 H
   0.6749622500000000    0.8919839800000000    0.8075844000000000 H
   0.5969184000000000    0.4864686900000000    0.6463310200000000 H
   0.4030816000000000    0.0135313100000000    0.1463310200000000 H
   0.4030816000000000    0.5135313100000000    0.3536689800000000 H
   0.5969184000000000    0.9864686900000000    0.8536689800000000 H
   0.5076623400000000    0.3791443400000000    0.9282521800000000 H
   0.4923376600000000    0.1208556600000000    0.4282521800000000 H
   0.4923376600000000    0.6208556600000000    0.0717478200000000 H
   0.5076623400000000    0.8791443400000000    0.5717478200000000 H
   0.6083988400000000    0.3197233400000000    0.8630237200000000 H
   0.3916011600000000    0.1802766600000000    0.3630237200000000 H
   0.3916011600000000    0.6802766600000000    0.1369762800000000 H
   0.6083988400000000    0.8197233400000000    0.6369762800000000 H
   0.6736670600000000    0.4521101200000000    0.8941550200000000 H
   0.3263329400000000    0.0478898800000000    0.3941550200000000 H
   0.3263329400000000    0.5478898800000001    0.1058449800000000 H
   0.6736670600000000    0.9521101199999999    0.6058449800000000 H
   0.1101557100000000    0.4039580700000000    0.9822570100000000 H
   0.8898442900000000    0.0960419300000000    0.4822570100000000 H
   0.8898442900000000    0.5960419300000001    0.0177429900000000 H
   0.1101557100000000    0.9039580699999999    0.5177429900000000 H
   0.2087822100000000    0.3093352000000000    0.9689267700000000 H
   0.7912177900000000    0.1906648000000000    0.4689267700000000 H
   0.7912177900000000    0.6906648000000000    0.0310732300000000 H
   0.2087822100000000    0.8093352000000000    0.5310732300000000 H
   0.2881317400000000    0.4454626200000000    0.9530941100000000 H
   0.7118682600000000    0.0545373800000000    0.4530941100000000 H
   0.7118682600000000    0.5545373800000000    0.0469058900000000 H
   0.2881317400000000    0.9454626200000000    0.5469058900000000 H
   0.9096131100000000    0.2770903200000000    0.7751212100000000 H
   0.0903868900000000    0.2229096800000000    0.2751212100000000 H
   0.0903868900000000    0.7229096800000000    0.2248787900000000 H
   0.9096131100000000    0.7770903200000000    0.7248787900000000 H
   0.9648337100000000    0.2007458800000000    0.8514290900000000 H
   0.0351662900000000    0.2992541200000000    0.3514290900000000 H
   0.0351662900000000    0.7992541200000000    0.1485709100000000 H
   0.9648337100000000    0.7007458800000000    0.6485709100000000 H
   0.8904659900000000    0.3049732300000000    0.8797480300000000 H
   0.1095340100000000    0.1950267700000000    0.3797480300000000 H
   0.1095340100000000    0.6950267700000000    0.1202519700000000 H
   0.8904659900000000    0.8049732300000000    0.6202519700000000 H
   0.2821810400000000    0.5534613000000000    0.5099208300000000 H
   0.7178189600000000    0.9465387000000000    0.0099208300000000 H
   0.7178189600000000    0.4465387000000000    0.4900791700000000 H
   0.2821810400000000    0.0534613000000000    0.9900791700000000 H
   0.1688254600000000    0.6086855900000000    0.5699851200000000 H
   0.8311745400000000    0.8913144100000000    0.0699851200000000 H
   0.8311745400000000    0.3913144100000000    0.4300148800000000 H
   0.1688254600000000    0.1086855900000000    0.9300148800000000 H
   0.3521582000000000    0.6646150100000000    0.5727312100000000 H
   0.6478418000000000    0.8353849900000000    0.0727312100000000 H
   0.6478418000000000    0.3353849900000000    0.4272687900000000 H
   0.3521582000000000    0.1646150100000000    0.9272687900000000 H
   0.6548126600000000    0.6675076200000000    0.7983744699999999 H
   0.3451873400000000    0.8324923800000000    0.2983744700000000 H
   0.3451873400000000    0.3324923800000000    0.2016255300000000 H
   0.6548126600000000    0.1675076200000000    0.7016255300000001 H
   0.5181605600000000    0.7055860800000000    0.8514389000000000 H
   0.4818394400000000    0.7944139200000000    0.3514389000000000 H
   0.4818394400000000    0.2944139200000000    0.1485611000000000 H
   0.5181605600000000    0.2055860800000000    0.6485611000000000 H
   0.6050060700000000    0.6155694300000000    0.8969345300000000 H
   0.3949939300000000    0.8844305700000000    0.3969345300000000 H
   0.3949939300000000    0.3844305700000000    0.1030654700000000 H
   0.6050060700000000    0.1155694300000000    0.6030654700000000 H
   0.0732279800000000    0.5840717300000000    0.9009354100000000 H
   0.9267720200000000    0.9159282700000000    0.4009354100000000 H
   0.9267720200000000    0.4159282700000000    0.0990645900000000 H
   0.0732279800000000    0.0840717300000000    0.5990645900000000 H
   0.0047388900000000    0.6014389900000000    0.8032489300000000 H
   0.9952611099999999    0.8985610100000000    0.3032489300000000 H
   0.9952611099999999    0.3985610100000000    0.1967510700000000 H
   0.0047388900000000    0.1014389900000000    0.6967510700000000 H
   0.9314014200000000    0.4858849000000000    0.8608808600000000 H
   0.0685985800000000    0.0141151000000000    0.3608808600000000 H
   0.0685985800000000    0.5141151000000000    0.1391191400000000 H
   0.9314014200000000    0.9858849000000000    0.6391191400000000 H
   0.2712384300000000    0.5904639900000000    0.5682944200000000 C
   0.7287615700000000    0.9095360100000000    0.0682944200000000 C
   0.7287615700000000    0.4095360100000000    0.4317055800000000 C
   0.2712384300000000    0.0904639900000000    0.9317055800000000 C
   0.5660547800000000    0.6399065900000001    0.8395682000000000 C
   0.4339452200000000    0.8600934099999999    0.3395682000000000 C
   0.4339452200000000    0.3600934100000000    0.1604318000000000 C
   0.5660547800000000    0.1399065900000000    0.6604318000000000 C
   0.0284905300000000    0.5431649800000000    0.8452598000000000 C
   0.9715094700000000    0.9568350200000000    0.3452598000000000 C
   0.9715094700000000    0.4568350200000000    0.1547402000000000 C
   0.0284905300000000    0.0431649800000000    0.6547402000000000 C
   0.3246273400000000    0.3492971700000000    0.5370857800000000 C
   0.6753726600000000    0.1507028300000000    0.0370857800000000 C
   0.6753726600000000    0.6507028300000000    0.4629142200000000 C
   0.3246273400000000    0.8492971700000000    0.9629142200000000 C
   0.0455682800000000    0.3586719400000000    0.6015306200000000 C
   0.9544317200000000    0.1413280600000000    0.1015306200000000 C
   0.9544317200000000    0.6413280600000000    0.3984693800000000 C
   0.0455682800000000    0.8586719400000000    0.8984693800000000 C
   0.6360197500000000    0.4623334400000000    0.7035252000000000 C
   0.3639802500000000    0.0376665600000000    0.2035252000000000 C
   0.3639802500000000    0.5376665600000000    0.2964748000000000 C
   0.6360197500000000    0.9623334400000000    0.7964748000000000 C
   0.5787389800000000    0.3935167000000000    0.8763483600000000 C
   0.4212610200000000    0.1064833000000000    0.3763483600000000 C
   0.4212610200000000    0.6064832999999999    0.1236516400000000 C
   0.5787389800000000    0.8935167000000001    0.6236516400000000 C
   0.1920947700000000    0.3836409400000000    0.9453179800000000 C
   0.8079052300000000    0.1163590600000000    0.4453179800000000 C
   0.8079052300000000    0.6163590600000000    0.0546820200000000 C
   0.1920947700000000    0.8836409400000000    0.5546820200000000 C
   0.9585714600000000    0.2808264400000000    0.8350024300000000 C
   0.0414285400000000    0.2191735600000000    0.3350024300000000 C
   0.0414285400000000    0.7191735600000000    0.1649975700000000 C
   0.9585714600000000    0.7808264400000000    0.6649975700000000 C
   0.2875423700000000    0.5247243200000000    0.6351654700000000 O
   0.7124576300000000    0.9752756800000000    0.1351654700000000 O
   0.7124576300000000    0.4752756800000000    0.3648345300000000 O
   0.2875423700000000    0.0247243200000000    0.8648345300000000 O
   0.4626665900000000    0.5557146800000000    0.8043750300000000 O
   0.5373334100000000    0.9442853200000000    0.3043750300000000 O
   0.5373334100000000    0.4442853200000000    0.1956249700000000 O
   0.4626665900000000    0.0557146800000000    0.6956249700000000 O
   0.1245867500000000    0.4934662400000000    0.8063751600000000 O
   0.8754132500000000    0.0065337600000000    0.3063751600000000 O
   0.8754132500000000    0.5065337600000001    0.1936248400000000 O
   0.1245867500000000    0.9934662399999999    0.6936248400000000 O
