Li2 Y2 P8 O24
1.0
   3.5660500000000002    8.2292290000000001    0.0000000000000000
  -3.5660500000000002    8.2292290000000001    0.0000000000000000
   0.0000000000000000    5.7107729999999997    7.8290439999999997
Li Y P O
2 2 8 24
direct
   0.2058060000000000    0.7941940000000000    0.2500000000000000 Li
   0.7941940000000000    0.2058060000000000    0.7500000000000000 Li
   0.7031300000000000    0.2968700000000000    0.2500000000000000 Y
   0.2968700000000000    0.7031300000000000    0.7500000000000000 Y
   0.2032430000000000    0.5047120000000000    0.5975870000000000 P
   0.9140500000000000    0.8114240000000000    0.1586270000000000 P
   0.0859500000000000    0.1885760000000000    0.8413730000000000 P
   0.7967570000000000    0.4952880000000000    0.4024130000000000 P
   0.1885760000000000    0.0859500000000000    0.3413730000000000 P
   0.5047120000000000    0.2032430000000000    0.0975870000000000 P
   0.4952880000000000    0.7967570000000000    0.9024130000000000 P
   0.8114240000000000    0.9140500000000000    0.6586270000000000 P
   0.9305950000000000    0.9371980000000000    0.7036570000000000 O
   0.6757590000000000    0.8340740000000000    0.8397870000000000 O
   0.4873710000000000    0.6558480000000000    0.0828140000000000 O
   0.1659260000000000    0.3242410000000000    0.6602130000000000 O
   0.5126290000000000    0.3441520000000000    0.9171859999999999 O
   0.0694050000000000    0.0628020000000000    0.2963430000000000 O
   0.7171120000000000    0.9696720000000000    0.0796000000000000 O
   0.0628020000000000    0.0694050000000000    0.7963430000000000 O
   0.7433830000000000    0.5095990000000000    0.2717520000000000 O
   0.4904010000000000    0.2566170000000000    0.2282480000000000 O
   0.1006780000000000    0.6749400000000000    0.0406250000000000 O
   0.2828880000000000    0.0303280000000000    0.9204000000000000 O
   0.3250600000000000    0.8993220000000000    0.4593750000000000 O
   0.9696720000000000    0.7171120000000000    0.5796000000000000 O
   0.5095990000000000    0.7433830000000000    0.7717520000000000 O
   0.3242410000000000    0.1659260000000000    0.1602130000000000 O
   0.9371980000000000    0.9305950000000000    0.2036570000000000 O
   0.0303280000000000    0.2828880000000000    0.4204000000000000 O
   0.3441520000000000    0.5126290000000000    0.4171860000000000 O
   0.6749400000000000    0.1006780000000000    0.5406250000000000 O
   0.2566170000000000    0.4904010000000000    0.7282480000000000 O
   0.8993220000000000    0.3250600000000000    0.9593750000000000 O
   0.8340740000000000    0.6757590000000000    0.3397870000000000 O
   0.6558480000000000    0.4873710000000000    0.5828140000000001 O
