Li2 Ho2 S4 O16
1.0
   7.5571580000000003    0.0000000000000000    0.0000000000000000
   0.0000000000000000    7.5571580000000003    0.0000000000000000
   0.0000000000000000    0.0000000000000000    5.8648530000000001
Li Ho S O
2 2 4 16
direct
   0.0000000000000000    0.5000000000000000    0.7500000000000000 Li
   0.5000000000000000    0.0000000000000000    0.2500000000000000 Li
   0.0000000000000000    0.5000000000000000    0.2500000000000000 Ho
   0.5000000000000000    0.0000000000000000    0.7500000000000000 Ho
   0.7771130000000001    0.7228869999999999    0.7500000000000000 S
   0.2228870000000000    0.2771130000000000    0.7500000000000000 S
   0.7228869999999999    0.2228870000000000    0.2500000000000000 S
   0.2771130000000000    0.7771130000000001    0.2500000000000000 S
   0.9127740000000000    0.6831490000000000    0.5664280000000000 O
   0.0872260000000000    0.3168510000000000    0.5664280000000000 O
   0.5872260000000000    0.1831490000000000    0.0664280000000000 O
   0.4127740000000000    0.8168510000000000    0.0664280000000000 O
   0.6831490000000000    0.0872260000000000    0.4335720000000000 O
   0.3168510000000000    0.9127740000000000    0.4335720000000000 O
   0.8168510000000000    0.5872260000000000    0.9335720000000000 O
   0.1831490000000000    0.4127740000000000    0.9335720000000000 O
   0.5964280000000000    0.7085880000000000    0.6550990000000000 O
   0.4035720000000000    0.2914120000000000    0.6550990000000000 O
   0.9035720000000000    0.2085880000000000    0.1550990000000000 O
   0.0964280000000000    0.7914120000000000    0.1550990000000000 O
   0.2914120000000000    0.5964280000000000    0.3449010000000000 O
   0.7085880000000000    0.4035720000000000    0.3449010000000000 O
   0.2085880000000000    0.0964280000000000    0.8449010000000000 O
   0.7914120000000000    0.9035720000000000    0.8449010000000000 O
