pymatgen with grid density = 1091 / number of atoms
0
Gamma
3 3 3
