Li6 Al6 Si6 O24
1.0
   4.9735199999999997   -6.8260769999999997    0.0000000000000000
   4.9735199999999997    6.8260769999999997    0.0000000000000000
  -4.3951630000000002    0.0000000000000000    7.2120569999999997
Li Al Si O
6 6 6 24
direct
   0.9408470000000000    0.7668110000000000    0.5446230000000000 Li
   0.5446230000000000    0.9408470000000000    0.7668110000000000 Li
   0.7668110000000000    0.5446230000000000    0.9408470000000000 Li
   0.0578420000000000    0.2277290000000000    0.4573640000000000 Li
   0.4573640000000000    0.0578420000000000    0.2277290000000000 Li
   0.2277290000000000    0.4573640000000000    0.0578420000000000 Li
   0.7898570000000000    0.3847400000000000    0.5725660000000000 Al
   0.8678880000000000    0.2788620000000000    0.1006760000000000 Al
   0.3847400000000000    0.5725660000000000    0.7898570000000000 Al
   0.5725660000000000    0.7898570000000000    0.3847400000000000 Al
   0.1006760000000000    0.8678880000000000    0.2788620000000000 Al
   0.2788620000000000    0.1006760000000000    0.8678880000000000 Al
   0.4261820000000000    0.2091410000000000    0.6150020000000000 Si
   0.6150020000000000    0.4261820000000000    0.2091410000000000 Si
   0.2091410000000000    0.6150020000000000    0.4261820000000000 Si
   0.1292460000000000    0.7200900000000000    0.8998310000000000 Si
   0.7200900000000000    0.8998310000000000    0.1292460000000000 Si
   0.8998310000000000    0.1292460000000000    0.7200900000000000 Si
   0.2682310000000000    0.9346600000000000    0.9568210000000000 O
   0.5964800000000000    0.9078770000000000    0.2464760000000000 O
   0.9078770000000000    0.2464760000000000    0.5964800000000000 O
   0.2464760000000000    0.5964800000000000    0.9078770000000000 O
   0.4117140000000000    0.0947510000000000    0.7406770000000000 O
   0.0947510000000000    0.7406770000000000    0.4117140000000000 O
   0.7406770000000000    0.4117140000000000    0.0947510000000000 O
   0.9568210000000000    0.2682310000000000    0.9346600000000000 O
   0.3164110000000000    0.3377670000000000    0.6499960000000000 O
   0.9346600000000000    0.9568210000000000    0.2682310000000000 O
   0.0410150000000000    0.7206990000000000    0.0484630000000000 O
   0.7206990000000000    0.0484630000000000    0.0410150000000000 O
   0.6807680000000000    0.6421640000000000    0.3474030000000000 O
   0.3474030000000000    0.6807680000000000    0.6421640000000000 O
   0.6421640000000000    0.3474030000000000    0.6807680000000000 O
   0.3933150000000000    0.3245990000000000    0.0604490000000000 O
   0.6499960000000000    0.3164110000000000    0.3377670000000000 O
   0.3377670000000000    0.6499960000000000    0.3164110000000000 O
   0.6908069999999999    0.9551350000000000    0.6218830000000000 O
   0.0604490000000000    0.3933150000000000    0.3245990000000000 O
   0.3245990000000000    0.0604490000000000    0.3933150000000000 O
   0.6218830000000000    0.6908069999999999    0.9551350000000000 O
   0.9551350000000000    0.6218830000000000    0.6908069999999999 O
   0.0484630000000000    0.0410150000000000    0.7206990000000000 O
