ALGO = Fast
EDIFF = 0.0008
ENCUT = 520
IBRION = 2
ISIF = 3
ISMEAR = -5
ISPIN = 2
LASPH = True
LORBIT = 11
LREAL = Auto
LWAVE = False
MAGMOM = 2*-0.003 2*-0.01 2*-0.003 2*0.013 2*0.586 2*0.094 2*0.022 2*0.114
NELM = 100
NSW = 99
PREC = Accurate
SIGMA = 0.05
