Li1 Y1 Mg6 O8
1.0
   8.8209772300000004    0.0000000000000000    0.0000000000000000
   0.0000000000000000    4.3662079499999997    0.0000000000000000
   0.0000000000000000    0.0000000000000000    4.3662079499999997
Li Y Mg O
1 1 6 8
direct
   0.5000000000000000    0.0000000000000000   -0.0000000000000000 Li
   0.0000000000000000    0.0000000000000000   -0.0000000000000000 Y
   0.0000000000000000    0.5000000000000000    0.5000000000000000 Mg
   0.5000000000000000    0.5000000000000000    0.5000000000000000 Mg
   0.2742028400000000    0.0000000000000000    0.5000000000000000 Mg
   0.7257971600000001   -0.0000000000000000    0.5000000000000000 Mg
   0.2742028400000000    0.5000000000000000    0.0000000000000000 Mg
   0.7257971600000001    0.5000000000000000   -0.0000000000000000 Mg
   0.2535274100000000   -0.0000000000000000   -0.0000000000000000 O
   0.7464725900000000    0.0000000000000000    0.0000000000000000 O
   0.2462766400000000    0.5000000000000000    0.5000000000000000 O
   0.7537233600000000    0.5000000000000000    0.5000000000000000 O
   0.0000000000000000    0.0000000000000000    0.5000000000000000 O
   0.5000000000000000    0.0000000000000000    0.5000000000000000 O
   0.0000000000000000    0.5000000000000000   -0.0000000000000000 O
   0.5000000000000000    0.5000000000000000   -0.0000000000000000 O
