Rb4 Li8 I12 O36
1.0
  11.4101289999999995    0.0000000000000000    0.0000000000000000
   0.0000000000000000    8.4202420000000000    0.0000000000000000
   0.0000000000000000    4.1072350000000002   10.6866669999999999
Rb Li I O
4 8 12 36
direct
   0.4556060000000000    0.7115710000000000    0.3386570000000000 Rb
   0.9556060000000000    0.2884290000000000    0.1613430000000000 Rb
   0.5443940000000000    0.2884290000000000    0.6613430000000000 Rb
   0.0443940000000000    0.7115710000000000    0.8386570000000000 Rb
   0.2159150000000000    0.6264500000000000    0.1395530000000000 Li
   0.7159150000000000    0.3735500000000000    0.3604470000000000 Li
   0.7840850000000000    0.3735500000000000    0.8604470000000000 Li
   0.2840850000000000    0.6264500000000000    0.6395530000000000 Li
   0.2107350000000000    0.0164100000000000    0.1526470000000000 Li
   0.7107350000000000    0.9835900000000000    0.3473530000000000 Li
   0.7892650000000000    0.9835900000000000    0.8473530000000000 Li
   0.2892650000000000    0.0164100000000000    0.6526470000000000 Li
   0.1319920000000000    0.9164639999999999    0.4383080000000000 I
   0.6319920000000000    0.0835360000000000    0.0616920000000000 I
   0.8680080000000000    0.0835360000000000    0.5616920000000000 I
   0.3680080000000000    0.9164639999999999    0.9383080000000000 I
   0.1821160000000000    0.4093700000000000    0.4539980000000000 I
   0.6821159999999999    0.5906300000000000    0.0460020000000000 I
   0.8178840000000001    0.5906300000000000    0.5460020000000000 I
   0.3178840000000000    0.4093700000000000    0.9539980000000000 I
   0.4473640000000000    0.2265190000000000    0.3200170000000000 I
   0.9473640000000000    0.7734810000000000    0.1799830000000000 I
   0.5526360000000000    0.7734810000000000    0.6799830000000000 I
   0.0526360000000000    0.2265190000000000    0.8200170000000000 I
   0.0795450000000000    0.1325700000000000    0.4166470000000000 O
   0.5795450000000000    0.8674300000000000    0.0833530000000000 O
   0.9204550000000000    0.8674300000000000    0.5833530000000000 O
   0.4204550000000000    0.1325700000000000    0.9166470000000000 O
   0.7950940000000000    0.1402790000000000    0.4087330000000000 O
   0.2950940000000000    0.8597210000000000    0.0912670000000000 O
   0.2571730000000000    0.9740760000000001    0.3307040000000000 O
   0.2049060000000000    0.8597210000000000    0.5912670000000000 O
   0.4583410000000000    0.9551030000000000    0.6699920000000000 O
   0.9583410000000000    0.0448970000000000    0.8300080000000000 O
   0.5416590000000000    0.0448970000000000    0.3300080000000000 O
   0.0416590000000000    0.9551030000000000    0.1699920000000000 O
   0.4560810000000000    0.6500810000000000    0.6170330000000001 O
   0.9560810000000000    0.3499190000000000    0.8829669999999999 O
   0.5439190000000000    0.3499190000000000    0.3829670000000000 O
   0.0439190000000000    0.6500810000000000    0.1170330000000000 O
   0.5369210000000000    0.6517560000000000    0.8475740000000000 O
   0.0369210000000000    0.3482440000000000    0.6524260000000000 O
   0.4630790000000000    0.3482440000000000    0.1524260000000000 O
   0.9630790000000000    0.6517560000000000    0.3475740000000000 O
   0.2882200000000000    0.2588080000000000    0.5526180000000001 O
   0.7882200000000000    0.7411920000000000    0.9473819999999999 O
   0.7117800000000000    0.7411920000000000    0.4473820000000000 O
   0.2117800000000000    0.2588080000000000    0.0526180000000000 O
   0.2383140000000000    0.4647590000000000    0.8043520000000000 O
   0.7383140000000000    0.5352410000000000    0.6956480000000000 O
   0.7616860000000000    0.5352410000000000    0.1956480000000000 O
   0.2616860000000000    0.4647590000000000    0.3043520000000000 O
   0.2757460000000000    0.5984969999999999    0.9882290000000000 O
   0.7757460000000000    0.4015030000000000    0.5117710000000000 O
   0.7242540000000000    0.4015030000000000    0.0117710000000000 O
   0.2242540000000000    0.5984969999999999    0.4882290000000000 O
   0.2428270000000000    0.9740760000000001    0.8307040000000000 O
   0.7428270000000000    0.0259240000000000    0.6692960000000000 O
   0.7571730000000000    0.0259240000000000    0.1692960000000000 O
   0.7049060000000000    0.1402790000000000    0.9087330000000000 O
