Rb2 Li14 Tb3 O14
1.0
  -3.7411690000000002    4.0955260000000004    6.5964060000000000
   3.7411690000000002   -4.0955260000000004    6.5964060000000000
   3.7411690000000002    4.0955260000000004   -6.5964060000000000
Rb Li Tb O
2 14 3 14
direct
   0.5000000000000000    0.2348100000000000    0.7348100000000000 Rb
   0.5000000000000000    0.7651900000000000    0.2651900000000000 Rb
   0.7112520000000000    0.5925859999999999    0.5711180000000000 Li
   0.9785320000000000    0.8598660000000000    0.5711180000000000 Li
   0.2887480000000000    0.4074140000000000    0.4288820000000000 Li
   0.7112520000000000    0.1401340000000000    0.1186660000000000 Li
   0.9785320000000000    0.4074140000000000    0.1186660000000000 Li
   0.0214680000000000    0.5925859999999999    0.8813340000000000 Li
   0.1222960000000000    0.7684590000000000    0.3538370000000000 Li
   0.1545180000000000    0.5000000000000000    0.6545180000000000 Li
   0.5853790000000000    0.2315410000000000    0.3538370000000000 Li
   0.0214680000000000    0.1401340000000000    0.4288820000000000 Li
   0.4146210000000000    0.7684590000000000    0.6461630000000000 Li
   0.8454820000000000    0.5000000000000000    0.3454820000000000 Li
   0.8777040000000000    0.2315410000000000    0.6461630000000000 Li
   0.2887480000000000    0.8598660000000000    0.8813340000000000 Li
   0.0000000000000000    0.0000000000000000    0.0000000000000000 Tb
   0.2704360000000000    0.2704360000000000    0.0000000000000000 Tb
   0.7295640000000000    0.7295640000000000    0.0000000000000000 Tb
   0.2483610000000000    0.9499410000000000    0.7015810000000000 O
   0.0000000000000000    0.7020260000000000    0.7020260000000000 O
   0.7516389999999999    0.0500590000000000    0.2984190000000000 O
   0.8479670000000000    0.6274740000000000    0.2204940000000000 O
   0.1520330000000000    0.3725260000000000    0.7795060000000000 O
   0.3156630000000000    0.1312780000000000    0.1843850000000000 O
   0.7516389999999999    0.4532200000000000    0.7015810000000000 O
   0.6843370000000000    0.8687220000000000    0.8156150000000000 O
   0.2483610000000000    0.5467800000000000    0.2984190000000000 O
   0.0531070000000000    0.8687220000000000    0.1843850000000000 O
   0.4069800000000000    0.6274740000000000    0.7795060000000000 O
   0.9468930000000000    0.1312780000000000    0.8156150000000000 O
   0.0000000000000000    0.2979740000000000    0.2979740000000000 O
   0.5930200000000000    0.3725260000000000    0.2204940000000000 O
