Na9 Li9 C9 O27
1.0
   7.2569090000000003  -12.5693339999999996    0.0000000000000000
   7.2569090000000003   12.5693339999999996    0.0000000000000000
   0.0000000000000000    0.0000000000000000    3.3609420000000001
Na Li C O
9 9 9 27
direct
   0.7755910000000000    0.9073230000000000    0.5000000000000000 Na
   0.1200500000000000    0.5753850000000000    0.5000000000000000 Na
   0.7447600000000000    0.1934150000000000    0.5000000000000000 Na
   0.1317310000000000    0.2244090000000000    0.5000000000000000 Na
   0.0926770000000000    0.8682690000000000    0.5000000000000000 Na
   0.4246150000000000    0.5446650000000000    0.5000000000000000 Na
   0.8065850000000000    0.5513439999999999    0.5000000000000000 Na
   0.4486560000000000    0.2552400000000000    0.5000000000000000 Na
   0.4553350000000000    0.8799500000000000    0.5000000000000000 Na
   0.5678640000000000    0.7469560000000000    0.0000000000000000 Li
   0.5801530000000000    0.4741660000000000    0.0000000000000000 Li
   0.2262630000000000    0.1001150000000000    0.0000000000000000 Li
   0.5258340000000000    0.1059870000000000    0.0000000000000000 Li
   0.8738530000000000    0.7737370000000000    0.0000000000000000 Li
   0.1790920000000000    0.4321360000000000    0.0000000000000000 Li
   0.8998850000000000    0.1261470000000000    0.0000000000000000 Li
   0.2530440000000000    0.8209080000000000    0.0000000000000000 Li
   0.8940129999999999    0.4198470000000000    0.0000000000000000 Li
   0.6802690000000000    0.6677470000000000    0.5000000000000000 C
   0.6555410000000000    0.9913870000000000    0.0000000000000000 C
   0.3322530000000000    0.0125220000000000    0.5000000000000000 C
   0.0000000000000000    0.0000000000000000    0.0000000000000000 C
   0.9874780000000000    0.3197310000000000    0.5000000000000000 C
   0.3358460000000000    0.3444590000000000    0.0000000000000000 C
   0.0086130000000000    0.6641540000000000    0.0000000000000000 C
   0.6666670000000000    0.3333330000000000    0.0000000000000000 C
   0.3333330000000000    0.6666670000000000    0.0000000000000000 C
   0.6488860000000000    0.8985430000000000    0.0000000000000000 O
   0.7594020000000000    0.4194400000000000    0.0000000000000000 O
   0.4165370000000000    0.6553020000000001    0.0000000000000000 O
   0.5692370000000000    0.9978080000000000    0.0000000000000000 O
   0.7481640000000001    0.0772080000000000    0.0000000000000000 O
   0.7812249999999999    0.7389960000000000    0.5000000000000000 O
   0.9577710000000000    0.2187750000000000    0.5000000000000000 O
   0.4333240000000000    0.0830540000000000    0.5000000000000000 O
   0.6097820000000000    0.6983000000000000    0.5000000000000000 O
   0.0885180000000000    0.3902180000000000    0.5000000000000000 O
   0.2496570000000000    0.3511140000000000    0.0000000000000000 O
   0.5805600000000000    0.3399620000000000    0.0000000000000000 O
   0.3446980000000000    0.7612350000000000    0.0000000000000000 O
   0.9227919999999999    0.6709560000000000    0.0000000000000000 O
   0.9079370000000000    0.9950599999999999    0.0000000000000000 O
   0.6600380000000000    0.2405980000000000    0.0000000000000000 O
   0.2610040000000000    0.0422290000000000    0.5000000000000000 O
   0.0871240000000000    0.0920630000000000    0.0000000000000000 O
   0.3290440000000000    0.2518360000000000    0.0000000000000000 O
   0.1014570000000000    0.7503430000000000    0.0000000000000000 O
   0.9169460000000000    0.3502700000000000    0.5000000000000000 O
   0.2387650000000000    0.5834630000000000    0.0000000000000000 O
   0.6497300000000000    0.5666760000000000    0.5000000000000000 O
   0.3017000000000000    0.9114820000000000    0.5000000000000000 O
   0.0049400000000000    0.9128760000000000    0.0000000000000000 O
   0.4285710000000000    0.4307630000000000    0.0000000000000000 O
   0.0021920000000000    0.5714290000000000    0.0000000000000000 O
