Li1 Bi2 As2 Pb2 O10
1.0
   5.5730029999999999   -0.0159970000000000   -2.1689129999999999
  -1.0999289999999999    6.7346459999999997   -2.4773589999999999
  -0.0364710000000000    0.2421440000000000    7.3984730000000001
Li Bi As Pb O
1 2 2 2 10
direct
   0.6362200000000000    0.4888960000000000    0.9893250000000000 Li
   0.1165230000000000    0.2610130000000000    0.0403440000000000 Bi
   0.0527140000000000    0.7623620000000000    0.9850740000000000 Bi
   0.6598190000000000    0.6546090000000000    0.3572130000000000 As
   0.2826170000000000    0.3445850000000000    0.6447530000000000 As
   0.4455050000000000    0.9009520000000000    0.7035090000000001 Pb
   0.7161990000000000    0.0931900000000000    0.2959310000000000 Pb
   0.1463160000000000    0.3065460000000000    0.3849400000000000 O
   0.4095600000000000    0.7877090000000000    0.3067720000000000 O
   0.7814500000000000    0.6968350000000000    0.6312660000000000 O
   0.5380170000000000    0.4011420000000000    0.1892350000000000 O
   0.0798680000000000    0.2136890000000000    0.6963710000000000 O
   0.8389219999999999    0.7238520000000001    0.2320850000000000 O
   0.2961860000000000    0.0073290000000000    0.0074930000000000 O
   0.8324680000000000    0.0125060000000000    0.0023750000000000 O
   0.3489000000000000    0.5868080000000000    0.8084020000000000 O
   0.5568120000000000    0.2579780000000000    0.7249120000000000 O
