Li4 Zn4 As4 H8 O20
1.0
   5.2155129999999996    0.0000000000000000    0.0000000000000000
   0.0000000000000000    8.4659569999999995    0.0000000000000000
   0.0000000000000000    0.0000000000000000   11.0862119999999997
Li Zn As H O
4 4 4 8 20
direct
   0.2641310000000000    0.6753140000000000    0.1802190000000000 Li
   0.7641310000000000    0.1753140000000000    0.3197810000000000 Li
   0.2641310000000000    0.8246860000000000    0.6802190000000000 Li
   0.7641310000000000    0.3246860000000000    0.8197810000000000 Li
   0.7628460000000000    0.8688520000000000    0.1237380000000000 Zn
   0.2628460000000000    0.3688520000000000    0.3762620000000000 Zn
   0.7628460000000000    0.6311480000000000    0.6237380000000000 Zn
   0.2628460000000000    0.1311480000000000    0.8762620000000000 Zn
   0.2577090000000000    0.0790060000000000    0.1708530000000000 As
   0.7577090000000000    0.5790060000000000    0.3291470000000000 As
   0.2577090000000000    0.4209940000000000    0.6708530000000000 As
   0.7577090000000000    0.9209940000000000    0.8291470000000000 As
   0.5925740000000000    0.4511650000000000    0.0164460000000000 H
   0.8219580000000000    0.3313690000000000    0.0411510000000000 H
   0.3219580000000000    0.8313690000000000    0.4588490000000000 H
   0.0925740000000000    0.9511650000000000    0.4835540000000000 H
   0.5925740000000000    0.0488350000000000    0.5164460000000000 H
   0.8219580000000000    0.1686310000000000    0.5411510000000000 H
   0.3219580000000000    0.6686310000000000    0.9588490000000000 H
   0.0925740000000000    0.5488350000000000    0.9835540000000000 H
   0.2562340000000000    0.5883699999999999    0.0148810000000000 O
   0.1707900000000000    0.1808660000000000    0.0434150000000000 O
   0.1269900000000000    0.8912210000000000    0.1683160000000000 O
   0.5849160000000000    0.0597730000000000    0.1896220000000000 O
   0.6322860000000000    0.6775770000000000    0.2072700000000000 O
   0.1322860000000000    0.1775770000000000    0.2927300000000000 O
   0.0849160000000000    0.5597730000000000    0.3103780000000000 O
   0.6269900000000000    0.3912210000000000    0.3316840000000000 O
   0.6707900000000000    0.6808660000000000    0.4565850000000000 O
   0.7562340000000000    0.0883700000000000    0.4851190000000000 O
   0.2562340000000000    0.9116300000000001    0.5148810000000000 O
   0.1707900000000000    0.3191340000000000    0.5434150000000000 O
   0.1269900000000000    0.6087790000000000    0.6683160000000000 O
   0.5849160000000000    0.4402270000000000    0.6896220000000000 O
   0.6322860000000000    0.8224230000000000    0.7072700000000000 O
   0.1322860000000000    0.3224230000000000    0.7927300000000000 O
   0.0849160000000000    0.9402270000000000    0.8103780000000000 O
   0.6269900000000000    0.1087790000000000    0.8316840000000000 O
   0.6707900000000000    0.8191340000000000    0.9565850000000000 O
   0.7562340000000000    0.4116300000000000    0.9851190000000000 O
