Li1 Mg14 Bi1 O16
1.0
   8.6534115400000005    0.0000000000000000    0.0000000000000000
   0.0000000000000000    8.6594722799999992    0.0000000000000000
   0.0000000000000000    0.0000000000000000    4.3634506899999996
Li Mg Bi O
1 14 1 16
direct
  -0.0000000000000000    0.0000000000000000    0.0000000000000000 Li
   0.5000000000000000    0.0000000000000000    0.0000000000000000 Mg
   0.5000000000000000    0.5000000000000000    0.0000000000000000 Mg
  -0.0000000000000000    0.2282204300000000    0.5000000000000000 Mg
  -0.0000000000000000    0.7717795700000000    0.5000000000000000 Mg
   0.5000000000000000    0.2458939100000000    0.5000000000000000 Mg
   0.5000000000000000    0.7541060900000000    0.5000000000000000 Mg
   0.2456133300000000    0.0000000000000000    0.5000000000000000 Mg
   0.2639706000000000    0.5000000000000000    0.5000000000000000 Mg
   0.7543866700000000    0.0000000000000000    0.5000000000000000 Mg
   0.7360293999999999    0.5000000000000000    0.5000000000000000 Mg
   0.2536071400000000    0.2368517100000000    0.0000000000000000 Mg
   0.2536071400000000    0.7631482900000000    0.0000000000000000 Mg
   0.7463928600000000    0.2368517100000000   -0.0000000000000000 Mg
   0.7463928600000000    0.7631482900000000   -0.0000000000000000 Mg
  -0.0000000000000000    0.5000000000000000    0.0000000000000000 Bi
   0.2620292000000000   -0.0000000000000000   -0.0000000000000000 O
   0.2677571800000000    0.5000000000000000   -0.0000000000000000 O
   0.7379708000000000    0.0000000000000000   -0.0000000000000000 O
   0.7322428200000000    0.5000000000000000    0.0000000000000000 O
   0.2485305300000000    0.2526231100000000    0.5000000000000000 O
   0.2485305300000000    0.7473768900000000    0.5000000000000000 O
   0.7514694700000000    0.2526231100000000    0.5000000000000000 O
   0.7514694700000000    0.7473768900000000    0.5000000000000000 O
  -0.0000000000000000    0.0000000000000000    0.5000000000000000 O
  -0.0000000000000000    0.5000000000000000    0.5000000000000000 O
   0.5000000000000000    0.0000000000000000    0.5000000000000000 O
   0.5000000000000000    0.5000000000000000    0.5000000000000000 O
  -0.0000000000000000    0.2340399200000000    0.0000000000000000 O
  -0.0000000000000000    0.7659600800000000    0.0000000000000000 O
   0.5000000000000000    0.2499987200000000    0.0000000000000000 O
   0.5000000000000000    0.7500012800000000    0.0000000000000000 O
