Li1 H7 S4 O16
1.0
   5.0588080000000000   -0.0079300000000000    0.2995520000000000
   1.0995619999999999    7.1776160000000004    1.0327120000000001
  -0.0839090000000000    0.0213330000000000    8.8152819999999998
Li H S O
1 7 4 16
direct
   0.4992310000000000    0.5026140000000000    0.5143660000000000 Li
   0.8103120000000000    0.0716580000000000    0.8242460000000000 H
   0.1846970000000000    0.9202350000000000    0.1697210000000000 H
   0.0586480000000000    0.5791870000000000    0.7670660000000000 H
   0.9289820000000000    0.4242930000000000    0.2391260000000000 H
   0.6316810000000000    0.9770320000000000    0.3234350000000000 H
   0.3720620000000000    0.0175140000000000    0.6795870000000001 H
   0.4718340000000000    0.4782280000000000    0.0038170000000000 H
   0.9702640000000000    0.7584210000000000    0.3371390000000000 S
   0.0325650000000000    0.2373000000000000    0.6630320000000000 S
   0.6686700000000000    0.7235290000000000    0.8159590000000000 S
   0.3149350000000000    0.2743910000000000    0.1880910000000000 S
   0.1956240000000000    0.7171760000000000    0.4355670000000000 O
   0.8100070000000000    0.2818000000000000    0.5621690000000000 O
   0.9835900000000000    0.6908400000000000    0.8180250000000000 O
   0.0031180000000000    0.3095730000000000    0.1897490000000000 O
   0.6024300000000000    0.9306270000000000    0.7949190000000000 O
   0.3849810000000000    0.0703710000000000    0.2065140000000000 O
   0.8133089999999999    0.6115600000000000    0.3244490000000000 O
   0.1872080000000000    0.3844460000000000    0.6797450000000000 O
   0.5860740000000000    0.6391110000000000    0.6905750000000000 O
   0.4132250000000000    0.3683590000000000    0.3015000000000000 O
   0.7870110000000000    0.9269110000000000    0.3935830000000000 O
   0.2188670000000000    0.0713360000000000    0.6059430000000000 O
   0.5709620000000000    0.6470720000000000    0.9684320000000000 O
   0.4040080000000000    0.3442180000000000    0.0255220000000000 O
   0.0567310000000000    0.8274030000000000    0.1688520000000000 O
   0.9389729999999999    0.1647950000000000    0.8288710000000000 O
