Li1 In4 Ge4 O14
1.0
  -5.0370670000000004   -5.0370670000000004   -0.0329880000000000
  -5.0370670000000004   -0.0329880000000000   -5.0370670000000004
  -0.0329880000000000   -5.0370670000000004   -5.0370670000000004
Li In Ge O
1 4 4 14
direct
   0.7473580000000000    0.7473580000000000    0.7473580000000000 Li
   0.4821450000000000    0.4821450000000000    0.0050540000000000 In
   0.4821450000000000    0.0050540000000000    0.4821450000000000 In
   0.0050540000000000    0.4821450000000000    0.4821450000000000 In
   0.4986120000000000    0.4986120000000000    0.4986120000000000 In
   0.0021960000000000    0.0021960000000000    0.4982180000000000 Ge
   0.0021960000000000    0.4982180000000000    0.0021960000000000 Ge
   0.4982180000000000    0.0021960000000000    0.0021960000000000 Ge
   0.0039190000000000    0.0039190000000000    0.0039190000000000 Ge
   0.3754160000000000    0.3754160000000000    0.3754160000000000 O
   0.6290860000000000    0.6290860000000000    0.6290860000000000 O
   0.3312240000000000    0.9231100000000000    0.9231100000000000 O
   0.9217420000000000    0.3285950000000000    0.3285950000000000 O
   0.9231100000000000    0.3312240000000000    0.9231100000000000 O
   0.3285950000000000    0.9217420000000000    0.3285950000000000 O
   0.9231100000000000    0.9231100000000000    0.3312240000000000 O
   0.3285950000000000    0.3285950000000000    0.9217420000000000 O
   0.6710660000000001    0.0798780000000000    0.0798780000000000 O
   0.0726880000000000    0.6772540000000000    0.6772540000000000 O
   0.0798780000000000    0.6710660000000001    0.0798780000000000 O
   0.6772540000000000    0.0726880000000000    0.6772540000000000 O
   0.0798780000000000    0.0798780000000000    0.6710660000000001 O
   0.6772540000000000    0.6772540000000000    0.0726880000000000 O
