Li4 H4 Se2 O10
1.0
   0.0000000000000000   -5.1069079999999998    0.0000000000000000
  -5.4424580000000002    0.0000000000000000    1.6798020000000000
  -0.0558460000000000    0.0000000000000000   -8.5744109999999996
Li H Se O
4 4 2 10
direct
   0.0063400000000000    0.6880810000000001    0.0084460000000000 Li
   0.5063400000000000    0.3119190000000000    0.9915540000000000 Li
   0.9955670000000000    0.4495670000000000    0.6063720000000000 Li
   0.4955670000000000    0.5504330000000000    0.3936280000000000 Li
   0.8853480000000000    0.0533870000000000    0.6754010000000000 H
   0.3853480000000000    0.9466130000000000    0.3245990000000000 H
   0.9214480000000000    0.0054290000000000    0.4891300000000000 H
   0.4214480000000000    0.9945710000000000    0.5108700000000000 H
   0.5061980000000000    0.7162360000000000    0.7917000000000000 Se
   0.0061980000000000    0.2837640000000000    0.2083000000000000 Se
   0.5851410000000000    0.0088730000000000    0.8156970000000000 O
   0.0851410000000000    0.9911270000000000    0.1843030000000000 O
   0.6228880000000000    0.5492320000000001    0.6115600000000000 O
   0.1228880000000000    0.4507680000000000    0.3884400000000000 O
   0.6385120000000000    0.6140810000000000    0.9384439999999999 O
   0.1385120000000000    0.3859190000000000    0.0615560000000000 O
   0.1813760000000000    0.6750670000000000    0.7950650000000000 O
   0.6813760000000000    0.3249330000000000    0.2049350000000000 O
   0.9969420000000000    0.0974740000000000    0.5939980000000000 O
   0.4969420000000000    0.9025260000000001    0.4060020000000000 O
