ALGO = Fast
EDIFF = 0.0016
ENCUT = 520
IBRION = 2
ISIF = 3
ISMEAR = -5
ISPIN = 2
LASPH = True
LMAXMIX = 4
LORBIT = 11
LREAL = Auto
LWAVE = False
MAGMOM = 1*-0.002 4*-0.0 1*-0.008 1*-0.01 1*-0.0 4*-0.001 1*0.004 1*0.022 1*0.027 1*0.015 1*0.005 1*0.008 1*0.002 2*0.006 1*0.023 1*0.025 1*0.012 1*0.002 1*0.042 1*0.01 1*0.052 1*0.566 1*0.0 2*0.001
NELM = 100
NSW = 99
PREC = Accurate
SIGMA = 0.05
