Ba2 Li2 B18 O30
1.0
   8.5237909999999992   -0.0213000000000000    1.4275020000000000
   1.2048289999999999    8.4382380000000001    1.4275020000000000
  -0.0246200000000000   -0.0213000000000000    8.6424629999999993
Ba Li B O
2 2 18 30
direct
   0.4979620000000000    0.4979620000000000    0.4979620000000000 Ba
   0.9979620000000000    0.9979620000000000    0.9979620000000000 Ba
   0.2463940000000000    0.2463940000000000    0.2463940000000000 Li
   0.7463940000000000    0.7463940000000000    0.7463940000000000 Li
   0.7431820000000000    0.6062270000000000    0.0808290000000000 B
   0.2501240000000000    0.6802859999999999    0.8192160000000001 B
   0.7501240000000000    0.3192160000000000    0.1802860000000000 B
   0.3192160000000000    0.1802860000000000    0.7501240000000000 B
   0.1062270000000000    0.2431820000000000    0.5808290000000000 B
   0.2431820000000000    0.5808290000000000    0.1062270000000000 B
   0.5808290000000000    0.1062270000000000    0.2431820000000000 B
   0.8192160000000001    0.2501240000000000    0.6802859999999999 B
   0.0808290000000000    0.7431820000000000    0.6062270000000000 B
   0.6062270000000000    0.0808290000000000    0.7431820000000000 B
   0.9187340000000001    0.2565190000000000    0.3935980000000000 B
   0.2565190000000000    0.3935980000000000    0.9187340000000001 B
   0.3935980000000000    0.9187340000000001    0.2565190000000000 B
   0.8935980000000000    0.7565190000000001    0.4187340000000000 B
   0.7565190000000001    0.4187340000000000    0.8935980000000000 B
   0.4187340000000000    0.8935980000000000    0.7565190000000001 B
   0.6802859999999999    0.8192160000000001    0.2501240000000000 B
   0.1802860000000000    0.7501240000000000    0.3192160000000000 B
   0.7567650000000000    0.7556320000000000    0.1022010000000000 O
   0.7556320000000000    0.1022010000000000    0.7567650000000000 O
   0.4873760000000000    0.2033040000000000    0.7216080000000000 O
   0.7216080000000000    0.4873760000000000    0.2033040000000000 O
   0.1022010000000000    0.7567650000000000    0.7556320000000000 O
   0.7033040000000000    0.9873760000000000    0.2216080000000000 O
   0.2216080000000000    0.7033040000000000    0.9873760000000000 O
   0.9873760000000000    0.2216080000000000    0.7033040000000000 O
   0.2429600000000000    0.2440180000000000    0.8979190000000000 O
   0.8979190000000000    0.2429600000000000    0.2440180000000000 O
   0.2440180000000000    0.8979190000000000    0.2429600000000000 O
   0.7440180000000000    0.7429600000000000    0.3979190000000000 O
   0.3979190000000000    0.7440180000000000    0.7429600000000000 O
   0.7429600000000000    0.3979190000000000    0.7440180000000000 O
   0.6022010000000000    0.2556320000000000    0.2567650000000000 O
   0.2556320000000000    0.2567650000000000    0.6022010000000000 O
   0.7961300000000000    0.2784580000000000    0.5122130000000000 O
   0.2784580000000000    0.5122130000000000    0.7961300000000000 O
   0.5122130000000000    0.7961300000000000    0.2784580000000000 O
   0.0122130000000000    0.7784580000000000    0.2961300000000000 O
   0.7784580000000000    0.2961300000000000    0.0122130000000000 O
   0.2961300000000000    0.0122130000000000    0.7784580000000000 O
   0.0759600000000000    0.2496170000000000    0.4237670000000000 O
   0.2496170000000000    0.4237670000000000    0.0759600000000000 O
   0.4237670000000000    0.0759600000000000    0.2496170000000000 O
   0.9237670000000000    0.7496170000000000    0.5759600000000000 O
   0.7496170000000000    0.5759600000000000    0.9237670000000000 O
   0.5759600000000000    0.9237670000000000    0.7496170000000000 O
   0.2033040000000000    0.7216080000000000    0.4873760000000000 O
   0.2567650000000000    0.6022010000000000    0.2556320000000000 O
