ALGO = Fast
EDIFF = 0.0006000000000000001
ENCUT = 520
IBRION = 2
ISIF = 3
ISMEAR = -5
ISPIN = 2
LASPH = True
LMAXMIX = 4
LORBIT = 11
LREAL = Auto
LWAVE = False
MAGMOM = 1*0.028 1*0.01 1*0.001 1*0.009 1*0.261 1*0.01 1*0.137 1*0.033 1*0.004 1*0.008 1*0.062 1*0.002
NELM = 100
NSW = 99
PREC = Accurate
SIGMA = 0.05
