pymatgen with grid density = 753 / number of atoms
0
Gamma
4 4 2
