K2 Li1 La4 O7
1.0
   6.1931459999999996    0.0001110000000000   -0.0000180000000000
  -3.0964760000000000    5.3633059999999997    0.0003540000000000
   0.0000200000000000    0.0004840000000000    8.8905040000000000
K Li La O
2 1 4 7
direct
   0.3331510000000000    0.6664170000000000    0.9971910000000000 K
   0.6664900000000000    0.3329850000000000    0.8955330000000000 K
   0.6666950000000000    0.3333870000000000    0.2443190000000000 Li
   0.0000230000000000    0.0000340000000000    0.2576240000000000 La
   0.9999730000000000    0.9999420000000000    0.7475540000000001 La
   0.3333570000000000    0.6666609999999999    0.4953620000000000 La
   0.6666990000000000    0.3333530000000000    0.5350050000000000 La
   0.9741730000000000    0.6292200000000000    0.3506250000000000 O
   0.0091490000000000    0.3614870000000000    0.6690590000000000 O
   0.0002470000000000    0.0003830000000000    0.0017000000000000 O
   0.3708200000000000    0.3449690000000000    0.3506100000000000 O
   0.6384640000000000    0.6476030000000000    0.6690760000000000 O
   0.3523490000000000    0.9908090000000001    0.6690570000000000 O
   0.6550810000000000    0.0258820000000000    0.3506180000000000 O
