Li6 Mg2 P2 C2 O14
1.0
   6.4248890000000003    0.0000000000000000    0.0000000000000000
   0.0000000000000000    5.0674999999999999    0.0000000000000000
   0.0000000000000000    0.3128100000000000    8.3092000000000006
Li Mg P C O
6 2 2 2 14
direct
   0.4978690000000000    0.0174360000000000    0.0003890000000000 Li
   0.1831650000000000    0.4562310000000000    0.1721410000000000 Li
   0.4430830000000000    0.4468210000000000    0.4979160000000000 Li
   0.9430830000000000    0.5531790000000000    0.5020840000000000 Li
   0.6831650000000000    0.5437689999999999    0.8278590000000000 Li
   0.9978690000000000    0.9825640000000000    0.9996110000000000 Li
   0.7486960000000000    0.0233070000000000    0.2805090000000000 Mg
   0.2486960000000000    0.9766930000000000    0.7194910000000000 Mg
   0.2472670000000000    0.9635080000000000    0.3328340000000000 P
   0.7472670000000000    0.0364920000000000    0.6671660000000000 P
   0.7404240000000000    0.5028350000000000    0.1394800000000000 C
   0.2404240000000000    0.4971650000000000    0.8605200000000000 C
   0.7304560000000000    0.3244700000000000    0.0310260000000000 O
   0.7691980000000000    0.7487560000000000    0.0948260000000000 O
   0.0621710000000000    0.0894850000000000    0.2341690000000000 O
   0.4434950000000000    0.0095660000000000    0.2296800000000000 O
   0.7266220000000000    0.4346600000000000    0.2915310000000000 O
   0.2076070000000000    0.6637340000000000    0.3672260000000000 O
   0.2745480000000000    0.1091480000000000    0.4928290000000000 O
   0.7745480000000000    0.8908520000000000    0.5071710000000000 O
   0.7076070000000000    0.3362660000000000    0.6327739999999999 O
   0.2266220000000000    0.5653400000000000    0.7084690000000000 O
   0.9434950000000000    0.9904340000000000    0.7703200000000000 O
   0.5621710000000000    0.9105150000000000    0.7658310000000000 O
   0.2691980000000000    0.2512440000000000    0.9051740000000000 O
   0.2304560000000000    0.6755300000000000    0.9689740000000000 O
