Li1 Mg14 C1 O16
1.0
   8.4880350399999998    0.0000000000000000    0.0000000000000000
   0.0000000000000000    8.4162542800000004    0.0000000000000000
   0.0000000000000000   -0.0000000000000000    4.2293353199999997
Li Mg C O
1 14 1 16
direct
  -0.0000000000000000    0.0000000000000000   -0.0000000000000000 Li
   0.5000000000000000    0.0000000000000000   -0.0000000000000000 Mg
   0.5000000000000000    0.5000000000000000   -0.0000000000000000 Mg
  -0.0000000000000000    0.2482125400000000    0.5000000000000000 Mg
  -0.0000000000000000    0.7517874600000000    0.5000000000000000 Mg
   0.5000000000000000    0.2485320000000000    0.5000000000000000 Mg
   0.5000000000000000    0.7514680000000000    0.5000000000000000 Mg
   0.2439989300000000    0.0000000000000000    0.5000000000000000 Mg
   0.2444549700000000    0.5000000000000000    0.5000000000000000 Mg
   0.7560010700000001    0.0000000000000000    0.5000000000000000 Mg
   0.7555450300000000    0.5000000000000000    0.5000000000000000 Mg
   0.2476186500000000    0.2477416600000000   -0.0000000000000000 Mg
   0.2476186500000000    0.7522583400000000    0.0000000000000000 Mg
   0.7523813499999999    0.2477416600000000   -0.0000000000000000 Mg
   0.7523813499999999    0.7522583400000000    0.0000000000000000 Mg
  -0.0000000000000000    0.5000000000000000   -0.0000000000000000 C
   0.2523847500000000   -0.0000000000000000   -0.0000000000000000 O
   0.2392062800000000    0.5000000000000000    0.0000000000000000 O
   0.7476152500000000    0.0000000000000000   -0.0000000000000000 O
   0.7607937200000000    0.5000000000000000   -0.0000000000000000 O
   0.2480810400000000    0.2512127500000000    0.5000000000000000 O
   0.2480810400000000    0.7487872500000000    0.5000000000000000 O
   0.7519189600000000    0.2512127500000000    0.5000000000000000 O
   0.7519189600000000    0.7487872500000000    0.5000000000000000 O
  -0.0000000000000000    0.0000000000000000    0.5000000000000000 O
  -0.0000000000000000    0.5000000000000000    0.5000000000000000 O
   0.5000000000000000    0.0000000000000000    0.5000000000000000 O
   0.5000000000000000    0.5000000000000000    0.5000000000000000 O
  -0.0000000000000000    0.2850113900000000    0.0000000000000000 O
  -0.0000000000000000    0.7149886100000000   -0.0000000000000000 O
   0.5000000000000000    0.2545534900000000    0.0000000000000000 O
   0.5000000000000000    0.7454465100000000   -0.0000000000000000 O
