Li4 Al4 P16 O48
1.0
   8.3617200000000000    0.0000000000000000    0.0000000000000000
   0.0000000000000000    9.0532190000000003    0.0000000000000000
   0.0000000000000000    0.0000000000000000   12.5849910000000005
Li Al P O
4 4 16 48
direct
   0.0059250000000000    0.7500000000000000    0.0000000000000000 Li
   0.4940750000000000    0.2500000000000000    0.5000000000000000 Li
   0.5059250000000000    0.7500000000000000    0.5000000000000000 Li
   0.9940750000000000    0.2500000000000000    0.0000000000000000 Li
   0.1320440000000000    0.2500000000000000    0.5000000000000000 Al
   0.3679560000000000    0.7500000000000000    0.0000000000000000 Al
   0.6320440000000001    0.2500000000000000    0.0000000000000000 Al
   0.8679559999999999    0.7500000000000000    0.5000000000000000 Al
   0.3170570000000000    0.0063620000000000    0.3610360000000000 P
   0.6829430000000000    0.9936380000000000    0.6389640000000000 P
   0.1829430000000000    0.5063620000000000    0.1389640000000000 P
   0.5356170000000000    0.5118740000000001    0.1480760000000000 P
   0.5356170000000000    0.9881259999999999    0.8519240000000000 P
   0.9643830000000000    0.4881260000000000    0.6480760000000000 P
   0.3170570000000000    0.4936380000000000    0.6389640000000000 P
   0.9643830000000000    0.0118740000000000    0.3519240000000000 P
   0.4643830000000000    0.4881260000000000    0.8519240000000000 P
   0.0356170000000000    0.9881259999999999    0.6480760000000000 P
   0.0356170000000000    0.5118740000000001    0.3519240000000000 P
   0.4643830000000000    0.0118740000000000    0.1480760000000000 P
   0.8170570000000000    0.4936380000000000    0.8610360000000000 P
   0.8170570000000000    0.0063620000000000    0.1389640000000000 P
   0.1829430000000000    0.9936380000000000    0.8610360000000000 P
   0.6829430000000000    0.5063620000000000    0.3610360000000000 P
   0.5268110000000000    0.6349080000000000    0.0679570000000000 O
   0.9065600000000000    0.6256480000000000    0.8957810000000000 O
   0.0934400000000000    0.3743520000000000    0.1042190000000000 O
   0.3668480000000000    0.6213740000000000    0.8809210000000000 O
   0.1990860000000000    0.6366750000000000    0.0634120000000000 O
   0.5268110000000000    0.8650920000000000    0.9320430000000000 O
   0.1331520000000000    0.1213740000000000    0.6190790000000000 O
   0.4731890000000000    0.3650920000000000    0.9320430000000000 O
   0.5934400000000000    0.3743520000000000    0.3957810000000000 O
   0.8944720000000000    0.0797890000000000    0.2446080000000000 O
   0.9731890000000000    0.3650920000000000    0.5679570000000000 O
   0.8944720000000000    0.4202110000000000    0.7553920000000000 O
   0.3009140000000000    0.1366750000000000    0.4365880000000000 O
   0.5934400000000000    0.1256480000000000    0.6042190000000000 O
   0.0934400000000000    0.1256480000000000    0.8957810000000000 O
   0.8668480000000000    0.6213740000000000    0.6190790000000000 O
   0.9731890000000000    0.1349080000000000    0.4320430000000000 O
   0.6055280000000000    0.9202110000000000    0.7446080000000000 O
   0.1331520000000000    0.3786260000000000    0.3809210000000000 O
   0.3586290000000000    0.4605140000000000    0.1807850000000000 O
   0.6331520000000000    0.1213740000000000    0.8809210000000000 O
   0.0268110000000000    0.6349080000000000    0.4320430000000000 O
   0.8009140000000000    0.1366750000000000    0.0634120000000000 O
   0.8586290000000000    0.4605140000000000    0.3192150000000000 O
   0.4065600000000000    0.8743520000000000    0.3957810000000000 O
   0.6331520000000000    0.3786260000000000    0.1190790000000000 O
   0.4065600000000000    0.6256480000000000    0.6042190000000000 O
   0.8668480000000000    0.8786260000000000    0.3809210000000000 O
   0.6990860000000000    0.8633250000000000    0.5634120000000000 O
   0.3668480000000000    0.8786260000000000    0.1190790000000000 O
   0.4731890000000000    0.1349080000000000    0.0679570000000000 O
   0.3944720000000000    0.4202110000000000    0.7446080000000000 O
   0.1413710000000000    0.5394860000000000    0.6807850000000000 O
   0.0268110000000000    0.8650920000000000    0.5679570000000000 O
   0.6055280000000000    0.5797890000000000    0.2553920000000000 O
   0.6413710000000000    0.5394860000000000    0.8192150000000000 O
   0.6413710000000000    0.9605140000000000    0.1807850000000000 O
   0.1990860000000000    0.8633250000000000    0.9365880000000000 O
   0.3586290000000000    0.0394860000000000    0.8192150000000000 O
   0.1413710000000000    0.9605140000000000    0.3192150000000000 O
   0.6990860000000000    0.6366750000000000    0.4365880000000000 O
   0.8586290000000000    0.0394860000000000    0.6807850000000000 O
   0.8009140000000000    0.3633250000000000    0.9365880000000000 O
   0.3944720000000000    0.0797890000000000    0.2553920000000000 O
   0.1055280000000000    0.9202110000000000    0.7553920000000000 O
   0.1055280000000000    0.5797890000000000    0.2446080000000000 O
   0.9065600000000000    0.8743520000000000    0.1042190000000000 O
   0.3009140000000000    0.3633250000000000    0.5634120000000000 O
