pymatgen with grid density = 1055 / number of atoms
0
Monkhorst
2 2 2
