Na2 Li2 Al8 Si4 O24
1.0
   4.5326589999999998    2.6484649999999998    0.0000000000000000
  -4.5326589999999998    2.6484649999999998    0.0000000000000000
   0.0000000000000000    1.7525560000000000   19.2917449999999988
Na Li Al Si O
2 2 8 4 24
direct
   0.0874580000000000    0.9101630000000001    0.2506940000000000 Na
   0.9101630000000001    0.0874580000000000    0.7506940000000000 Na
   0.4999720000000000    0.0068090000000000    0.0018360000000000 Li
   0.0068090000000000    0.4999720000000000    0.5018359999999999 Li
   0.6243270000000000    0.8068790000000000    0.5009890000000000 Al
   0.8068790000000000    0.6243270000000000    0.0009890000000000 Al
   0.3749120000000000    0.1834100000000000    0.5007560000000000 Al
   0.1834100000000000    0.3749120000000000    0.0007560000000000 Al
   0.2879610000000000    0.7938280000000000    0.6455350000000000 Al
   0.7938280000000000    0.2879610000000000    0.1455350000000000 Al
   0.3857170000000000    0.5369660000000001    0.3562020000000000 Al
   0.5369660000000001    0.3857170000000000    0.8562020000000000 Al
   0.6116160000000000    0.4526960000000000    0.6461060000000000 Si
   0.4526960000000000    0.6116160000000000    0.1461060000000000 Si
   0.7088270000000000    0.1986130000000000    0.3560520000000000 Si
   0.1986130000000000    0.7088270000000000    0.8560520000000000 Si
   0.5538570000000000    0.7090190000000000    0.6735740000000000 O
   0.7090190000000000    0.5538570000000000    0.1735740000000000 O
   0.4602990000000000    0.2671000000000000    0.3272770000000000 O
   0.2671000000000000    0.4602990000000000    0.8272770000000000 O
   0.6096520000000000    0.4707770000000000    0.5581440000000000 O
   0.4707770000000000    0.6096520000000000    0.0581440000000000 O
   0.6690480000000000    0.8940600000000000    0.3281590000000000 O
   0.8940600000000000    0.6690480000000000    0.8281590000000000 O
   0.9860960000000000    0.0647580000000000    0.5351820000000000 O
   0.0647580000000000    0.9860960000000000    0.0351820000000000 O
   0.0376050000000000    0.4755520000000000    0.3366060000000000 O
   0.4755520000000000    0.0376050000000000    0.8366060000000000 O
   0.3573760000000000    0.8542910000000000    0.5528820000000000 O
   0.8542910000000000    0.3573760000000000    0.0528820000000000 O
   0.3914110000000000    0.5128220000000000    0.4491830000000000 O
   0.5128220000000000    0.3914110000000000    0.9491830000000000 O
   0.0088080000000000    0.9221060000000000    0.4669340000000000 O
   0.9221060000000000    0.0088080000000000    0.9669340000000000 O
   0.3460580000000000    0.1281360000000000    0.6749030000000000 O
   0.1281360000000000    0.3460580000000000    0.1749030000000000 O
   0.6480430000000000    0.1473170000000000    0.4438670000000000 O
   0.1473170000000000    0.6480430000000000    0.9438670000000000 O
   0.9295460000000000    0.4985070000000000    0.6654180000000000 O
   0.4985070000000000    0.9295460000000000    0.1654180000000000 O
