Li6 Zn2 P2 C2 O14
1.0
   6.4514630000000004    0.0000000000000000    0.0000000000000000
   0.0000000000000000    4.9309180000000001    0.0000000000000000
   0.0000000000000000    0.3479730000000000    8.4669299999999996
Li Zn P C O
6 2 2 2 14
direct
   0.7500000000000000    0.2557530000000000    0.9133760000000000 Li
   0.9826810000000000    0.7687320000000000    0.7363670000000000 Li
   0.5173190000000000    0.7687320000000000    0.7363670000000000 Li
   0.4826810000000000    0.2312680000000000    0.2636330000000000 Li
   0.0173190000000000    0.2312680000000000    0.2636330000000000 Li
   0.2500000000000000    0.7442470000000000    0.0866240000000000 Li
   0.2500000000000000    0.2251940000000000    0.6464960000000000 Zn
   0.7500000000000000    0.7748060000000000    0.3535040000000000 Zn
   0.7500000000000000    0.2873630000000000    0.5897060000000000 P
   0.2500000000000000    0.7126370000000000    0.4102940000000000 P
   0.2500000000000000    0.2709080000000000    0.9576690000000000 C
   0.7500000000000000    0.7290920000000000    0.0423310000000000 C
   0.2500000000000000    0.0209800000000000    0.9176609999999999 O
   0.7500000000000000    0.6662650000000000    0.8942960000000000 O
   0.2500000000000000    0.4664060000000000    0.8495580000000000 O
   0.9377640000000000    0.1836720000000000    0.6894590000000000 O
   0.5622360000000000    0.1836720000000000    0.6894590000000000 O
   0.7500000000000000    0.6054490000000000    0.5772770000000000 O
   0.2500000000000000    0.8136240000000000    0.5815780000000000 O
   0.7500000000000000    0.1863760000000000    0.4184220000000000 O
   0.2500000000000000    0.3945510000000000    0.4227230000000000 O
   0.4377640000000000    0.8163280000000001    0.3105410000000000 O
   0.0622360000000000    0.8163280000000001    0.3105410000000000 O
   0.7500000000000000    0.5335940000000000    0.1504420000000000 O
   0.2500000000000000    0.3337350000000000    0.1057040000000000 O
   0.7500000000000000    0.9790200000000000    0.0823390000000000 O
