Li2 Bi2 C2 S2 O14
1.0
   6.9721240000000000    0.0000000000000000    0.0000000000000000
   0.0000000000000000    5.4450320000000003    0.0000000000000000
   0.0000000000000000    0.1369080000000000    9.2086009999999998
Li Bi C S O
2 2 2 2 14
direct
   0.5003300000000001    0.2686640000000000    0.8251980000000000 Li
   0.0003300000000000    0.7313360000000000    0.1748020000000000 Li
   0.7531890000000000    0.7770480000000000    0.6469950000000000 Bi
   0.2531890000000000    0.2229520000000000    0.3530050000000000 Bi
   0.7346200000000001    0.7205000000000000    0.9353440000000000 C
   0.2346200000000000    0.2795000000000000    0.0646560000000000 C
   0.2597160000000000    0.7249380000000000    0.5929580000000000 S
   0.7597159999999999    0.2750620000000000    0.4070420000000000 S
   0.2744550000000000    0.3070950000000000    0.9344130000000000 O
   0.7371060000000000    0.9399500000000000    0.8665780000000000 O
   0.6940750000000000    0.5346440000000000    0.8466840000000000 O
   0.0881480000000000    0.7955160000000000    0.6792660000000000 O
   0.4226040000000000    0.8786460000000000    0.6476040000000000 O
   0.7294920000000000    0.2150980000000000    0.5664500000000000 O
   0.3041150000000000    0.4611710000000000    0.6074370000000000 O
   0.8041150000000000    0.5388290000000000    0.3925630000000000 O
   0.2294920000000000    0.7849020000000000    0.4335500000000000 O
   0.9226040000000000    0.1213540000000000    0.3523960000000000 O
   0.5881480000000000    0.2044840000000000    0.3207340000000000 O
   0.1940750000000000    0.4653560000000000    0.1533160000000000 O
   0.2371060000000000    0.0600500000000000    0.1334220000000000 O
   0.7744550000000000    0.6929050000000000    0.0655870000000000 O
