ALGO = Fast
EDIFF = 0.00045000000000000004
ENCUT = 520
IBRION = 2
ISIF = 3
ISMEAR = -5
ISPIN = 2
LASPH = True
LMAXMIX = 6
LORBIT = 11
LREAL = Auto
LWAVE = False
MAGMOM = 1*0.052 2*0.15 2*0.028 2*-0.001 2*0.023
NELM = 100
NSW = 99
PREC = Accurate
SIGMA = 0.05
