pymatgen with grid density = 1483 / number of atoms
0
Gamma
5 5 2
