Li4 H16 C4 S4 N4 O8
1.0
   5.8889570000000004    0.0000000000000000    0.0000000000000000
   0.0000000000000000    8.3815449999999991    0.0000000000000000
   0.0000000000000000    0.0000000000000000    9.9051360000000006
Li H C S N O
4 16 4 4 4 8
direct
   0.6150630000000000    0.2500000000000000    0.2131430000000000 Li
   0.1150630000000000    0.2500000000000000    0.2868570000000000 Li
   0.3849370000000000    0.7500000000000000    0.7868570000000000 Li
   0.8849370000000000    0.7500000000000000    0.7131430000000000 Li
   0.1871290000000000    0.5714450000000000    0.5911360000000000 H
   0.6871290000000000    0.9285550000000000    0.9088640000000000 H
   0.8128710000000000    0.0714450000000000    0.4088640000000000 H
   0.3128710000000000    0.4285550000000000    0.0911360000000000 H
   0.8128710000000000    0.4285550000000000    0.4088640000000000 H
   0.3128710000000000    0.0714450000000000    0.0911360000000000 H
   0.1871290000000000    0.9285550000000000    0.5911360000000000 H
   0.6871290000000000    0.5714450000000000    0.9088640000000000 H
   0.1529140000000000    0.4830900000000000    0.7306130000000000 H
   0.6529140000000000    0.0169100000000000    0.7693870000000000 H
   0.8470860000000000    0.9830900000000000    0.2693870000000000 H
   0.3470860000000000    0.5169100000000000    0.2306130000000000 H
   0.8470860000000000    0.5169100000000000    0.2693870000000000 H
   0.3470860000000000    0.9830900000000000    0.2306130000000000 H
   0.1529140000000000    0.0169100000000000    0.7306130000000000 H
   0.6529140000000000    0.4830900000000000    0.7693870000000000 H
   0.9592000000000001    0.2500000000000000    0.9680050000000000 C
   0.4592000000000000    0.2500000000000000    0.5319950000000000 C
   0.0408000000000000    0.7500000000000000    0.0319950000000000 C
   0.5407999999999999    0.7500000000000000    0.4680050000000000 C
   0.1869520000000000    0.2500000000000000    0.8721470000000000 S
   0.6869520000000000    0.2500000000000000    0.6278530000000000 S
   0.8130480000000000    0.7500000000000000    0.1278530000000000 S
   0.3130480000000000    0.7500000000000000    0.3721470000000000 S
   0.7994320000000000    0.2500000000000000    0.0402300000000000 N
   0.2994320000000000    0.2500000000000000    0.4597700000000000 N
   0.2005680000000000    0.7500000000000000    0.9597700000000000 N
   0.7005680000000000    0.7500000000000000    0.5402300000000000 N
   0.1583670000000000    0.5888660000000000    0.6872870000000000 O
   0.6583670000000000    0.9111340000000000    0.8127130000000000 O
   0.8416330000000000    0.0888660000000000    0.3127130000000000 O
   0.3416330000000000    0.4111340000000000    0.1872870000000000 O
   0.8416330000000000    0.4111340000000000    0.3127130000000000 O
   0.3416330000000000    0.0888660000000000    0.1872870000000000 O
   0.1583670000000000    0.9111340000000000    0.6872870000000000 O
   0.6583670000000000    0.5888660000000000    0.8127130000000000 O
