pymatgen with grid density = 1127 / number of atoms
0
Gamma
2 3 1
