Li4 Sb8 P12 O48
1.0
   9.0696440000000003    0.0000000000000000    0.0000000000000000
   0.0000000000000000    8.7771070000000009    0.0000000000000000
   0.0000000000000000    8.7646069999999998   12.7388739999999991
Li Sb P O
4 8 12 48
direct
   0.2389030000000000    0.4075040000000000    0.3072540000000000 Li
   0.7389030000000000    0.5924960000000000    0.1927460000000000 Li
   0.7610970000000000    0.5924960000000000    0.6927460000000000 Li
   0.2610970000000000    0.4075040000000000    0.8072540000000000 Li
   0.5472340000000000    0.3480070000000000    0.3973340000000000 Sb
   0.4527660000000000    0.6519930000000000    0.6026660000000000 Sb
   0.9527660000000000    0.3480070000000000    0.8973340000000000 Sb
   0.4556780000000000    0.8582550000000000    0.8875590000000000 Sb
   0.0443220000000000    0.8582550000000000    0.3875590000000000 Sb
   0.5443220000000000    0.1417450000000000    0.1124410000000000 Sb
   0.0472340000000000    0.6519930000000000    0.1026660000000000 Sb
   0.9556780000000000    0.1417450000000000    0.6124410000000000 Sb
   0.6060210000000000    0.9593580000000000    0.6577950000000000 P
   0.0896190000000000    0.7524200000000000    0.6410810000000000 P
   0.7393780000000000    0.5443570000000000    0.0074400000000000 P
   0.8939790000000000    0.9593580000000000    0.1577950000000000 P
   0.2606220000000000    0.4556430000000000    0.9925600000000000 P
   0.7606220000000000    0.5443570000000000    0.5074400000000000 P
   0.1060210000000000    0.0406420000000000    0.8422050000000000 P
   0.5896190000000000    0.2475800000000000    0.8589190000000000 P
   0.4103810000000000    0.7524200000000000    0.1410810000000000 P
   0.9103810000000000    0.2475800000000000    0.3589190000000000 P
   0.2393780000000000    0.4556430000000000    0.4925600000000000 P
   0.3939790000000000    0.0406420000000000    0.3422050000000000 P
   0.2370980000000000    0.9863170000000000    0.3256030000000000 O
   0.4624680000000000    0.8893300000000000    0.4484330000000000 O
   0.6750520000000000    0.5773480000000000    0.5817820000000000 O
   0.3420440000000000    0.4837020000000000    0.5600190000000000 O
   0.5375320000000000    0.1106700000000000    0.5515670000000000 O
   0.9605470000000000    0.6233640000000000    0.6982340000000000 O
   0.8420440000000000    0.5162980000000000    0.9399810000000000 O
   0.6579560000000000    0.5162980000000000    0.4399810000000000 O
   0.8650630000000000    0.3760220000000000    0.5796680000000000 O
   0.7629020000000000    0.0136830000000000    0.6743970000000000 O
   0.0375320000000000    0.8893300000000000    0.9484330000000000 O
   0.4605470000000000    0.3766360000000000    0.8017660000000000 O
   0.6449700000000000    0.7204040000000000    0.9329090000000000 O
   0.0394530000000000    0.3766360000000000    0.3017660000000000 O
   0.6039710000000000    0.1841900000000000    0.9770489999999999 O
   0.7386280000000000    0.3351490000000000    0.8092490000000000 O
   0.8550300000000000    0.7204040000000000    0.4329090000000000 O
   0.0020140000000000    0.9446730000000000    0.2409960000000000 O
   0.5020140000000000    0.0553270000000000    0.2590040000000000 O
   0.1750520000000000    0.4226520000000000    0.9182180000000000 O
   0.1039710000000000    0.8158100000000000    0.5229510000000001 O
   0.8960290000000000    0.1841900000000000    0.4770490000000000 O
   0.1153710000000000    0.2246150000000000    0.8314390000000000 O
   0.9624680000000000    0.1106700000000000    0.0515670000000000 O
   0.4234070000000000    0.9310380000000000    0.1407870000000000 O
   0.1349370000000000    0.6239780000000000    0.4203320000000000 O
   0.2386280000000000    0.6648510000000000    0.6907510000000000 O
   0.7370980000000000    0.0136830000000000    0.1743970000000000 O
   0.1579560000000000    0.4837020000000000    0.0600190000000000 O
   0.9234070000000000    0.0689620000000000    0.3592130000000000 O
   0.6349370000000000    0.3760220000000000    0.0796680000000000 O
   0.3650630000000000    0.6239780000000000    0.9203320000000000 O
   0.3960290000000000    0.8158100000000000    0.0229510000000000 O
   0.0765930000000000    0.9310380000000000    0.6407870000000000 O
   0.1449700000000000    0.2795960000000000    0.5670910000000000 O
   0.2613720000000000    0.6648510000000000    0.1907510000000000 O
   0.9979860000000000    0.0553270000000000    0.7590040000000000 O
   0.3249480000000000    0.4226520000000000    0.4182180000000000 O
   0.5765930000000000    0.0689620000000000    0.8592130000000000 O
   0.4979860000000000    0.9446730000000000    0.7409960000000000 O
   0.7613720000000000    0.3351490000000000    0.3092490000000000 O
   0.6153710000000000    0.7753850000000000    0.6685610000000000 O
   0.8249480000000000    0.5773480000000000    0.0817820000000000 O
   0.5394530000000000    0.6233640000000000    0.1982340000000000 O
   0.3846290000000000    0.2246150000000000    0.3314390000000000 O
   0.2629020000000000    0.9863170000000000    0.8256030000000000 O
   0.8846290000000000    0.7753850000000000    0.1685610000000000 O
   0.3550300000000000    0.2795960000000000    0.0670910000000000 O
