ALGO = Fast
EDIFF = 0.0016
ENCUT = 520
IBRION = 2
ISIF = 3
ISMEAR = -5
ISPIN = 2
LASPH = True
LMAXMIX = 4
LORBIT = 11
LREAL = Auto
LWAVE = False
MAGMOM = 2*0.0 1*0.004 6*0.0 1*0.002 1*0.001 2*0.0 1*0.001 2*0.0 1*0.003 1*0.008 2*0.002 2*0.0 1*0.858 3*-0.0 1*0.74 1*-0.0 1*0.007 1*0.001 2*0.0
NELM = 100
NSW = 99
PREC = Accurate
SIGMA = 0.05
