Ba1 Li1 Mg2 Al1 Si3 O10 F2
1.0
   5.3074750000000002    0.0000000000000000    0.0000000000000000
  -2.6451080000000000    4.6137699999999997    0.0000000000000000
  -0.8365820000000000   -1.6294740000000001   10.1317439999999994
Ba Li Mg Al Si O F
1 1 2 1 3 10 2
direct
   0.9911040000000000    0.9913990000000000    0.9735050000000000 Ba
   0.4922890000000000    0.4989450000000000    0.5057580000000000 Li
   0.1681130000000000    0.8349580000000000    0.5029540000000000 Mg
   0.8390190000000000    0.1705640000000000    0.5021510000000000 Mg
   0.2584080000000000    0.5916510000000000    0.7675340000000000 Al
   0.5957150000000000    0.2591670000000000    0.7785510000000000 Si
   0.7419559999999999    0.4081740000000000    0.2292460000000000 Si
   0.4090240000000000    0.7457020000000000    0.2293620000000000 Si
   0.4872800000000000    0.4776430000000000    0.8444930000000000 O
   0.5355210000000000    0.5359220000000000    0.1643470000000000 O
   0.9424110000000000    0.4143440000000000    0.8466730000000000 O
   0.4244160000000000    0.9609850000000000    0.8474410000000000 O
   0.0532650000000000    0.5698680000000000    0.1621000000000000 O
   0.5696480000000000    0.0524500000000000    0.1603260000000000 O
   0.1942190000000000    0.5357590000000000    0.5997540000000000 O
   0.5413880000000000    0.1966610000000000    0.6191890000000000 O
   0.7990070000000000    0.4587320000000000    0.3855160000000000 O
   0.4649520000000000    0.8119080000000000    0.3858090000000000 O
   0.8739749999999999    0.8758340000000000    0.6035970000000001 F
   0.1182880000000000    0.1093360000000000    0.3916940000000000 F
