Sr2 Li2 P2 O8
1.0
  -2.5418630000000002   -4.4026350000000001    0.0000000000000000
  -2.5418630000000002    4.4026350000000001    0.0000000000000000
   0.0000000000000000    0.0000000000000000   -8.4413300000000007
Sr Li P O
2 2 2 8
direct
   0.0000000000000000    0.0000000000000000    0.9831090000000000 Sr
   0.0000000000000000    0.0000000000000000    0.4831090000000000 Sr
   0.6666670000000000    0.3333330000000000    0.1748010000000000 Li
   0.3333330000000000    0.6666670000000000    0.6748010000000000 Li
   0.6666670000000000    0.3333330000000000    0.7712220000000000 P
   0.3333330000000000    0.6666670000000000    0.2712220000000000 P
   0.6666670000000000    0.3333330000000000    0.9546990000000000 O
   0.3333330000000000    0.6666670000000000    0.4546990000000000 O
   0.9409940000000000    0.3032170000000000    0.7149390000000000 O
   0.3622230000000000    0.0590060000000000    0.7149390000000000 O
   0.0590060000000000    0.6967830000000000    0.2149390000000000 O
   0.6967830000000000    0.6377770000000000    0.7149390000000000 O
   0.6377770000000000    0.9409940000000000    0.2149390000000000 O
   0.3032170000000000    0.3622230000000000    0.2149390000000000 O
