Na40 Li8 P16 O64
1.0
  10.2552509999999995    0.0000000000000000    0.0000000000000000
   0.0000000000000000   10.2695030000000003    0.0000000000000000
   0.0000000000000000    0.0000000000000000   14.9363709999999994
Na Li P O
40 8 16 64
direct
   0.2430100000000000    0.7432340000000000    0.6052600000000000 Na
   0.5154930000000000    0.4902900000000000    0.8866600000000000 Na
   0.7569900000000001    0.2567660000000000    0.3947400000000000 Na
   0.9341530000000000    0.7670850000000000    0.2500000000000000 Na
   0.0154930000000000    0.0097100000000000    0.1133400000000000 Na
   0.9845070000000000    0.9902900000000000    0.8866600000000000 Na
   0.2249740000000000    0.7529610000000000    0.1368790000000000 Na
   0.7220020000000000    0.9973670000000000    0.0020070000000000 Na
   0.2249740000000000    0.7529610000000000    0.3631210000000000 Na
   0.4845070000000000    0.5097100000000000    0.3866600000000000 Na
   0.7220020000000000    0.9973670000000000    0.4979930000000000 Na
   0.7779980000000000    0.4973670000000000    0.0020070000000000 Na
   0.4840790000000000    0.2131540000000000    0.7500000000000000 Na
   0.5658470000000000    0.2670850000000000    0.2500000000000000 Na
   0.7430099999999999    0.7567660000000000    0.1052600000000000 Na
   0.7779980000000000    0.4973670000000000    0.4979930000000000 Na
   0.4845070000000000    0.5097100000000000    0.1133400000000000 Na
   0.5154930000000000    0.4902900000000000    0.6133400000000000 Na
   0.0658470000000000    0.2329150000000000    0.7500000000000000 Na
   0.7430099999999999    0.7567660000000000    0.3947400000000000 Na
   0.0159210000000000    0.7131540000000000    0.7500000000000000 Na
   0.2430100000000000    0.7432340000000000    0.8947400000000000 Na
   0.9840790000000000    0.2868460000000000    0.2500000000000000 Na
   0.2569900000000000    0.2432340000000000    0.6052600000000000 Na
   0.2220020000000000    0.5026330000000000    0.9979930000000000 Na
   0.7750260000000000    0.2470390000000000    0.8631210000000000 Na
   0.2750260000000000    0.2529610000000000    0.1368790000000000 Na
   0.2750260000000000    0.2529610000000000    0.3631210000000000 Na
   0.0154930000000000    0.0097100000000000    0.3866600000000000 Na
   0.4341530000000000    0.7329150000000000    0.7500000000000000 Na
   0.2779980000000000    0.0026330000000000    0.5020070000000000 Na
   0.7249740000000000    0.7470390000000000    0.6368790000000000 Na
   0.5159210000000000    0.7868460000000000    0.2500000000000000 Na
   0.7569900000000001    0.2567660000000000    0.1052600000000000 Na
   0.9845070000000000    0.9902900000000000    0.6133400000000000 Na
   0.7249740000000000    0.7470390000000000    0.8631210000000000 Na
   0.2779980000000000    0.0026330000000000    0.9979930000000000 Na
   0.2220020000000000    0.5026330000000000    0.5020070000000000 Na
   0.7750260000000000    0.2470390000000000    0.6368790000000000 Na
   0.2569900000000000    0.2432340000000000    0.8947400000000000 Na
   0.9960020000000001    0.4895730000000000    0.6398480000000000 Li
   0.5039979999999999    0.9895730000000000    0.6398480000000000 Li
   0.5039979999999999    0.9895730000000000    0.8601520000000000 Li
   0.9960020000000001    0.4895730000000000    0.8601520000000000 Li
   0.4960020000000000    0.0104270000000000    0.3601520000000000 Li
   0.4960020000000000    0.0104270000000000    0.1398480000000000 Li
   0.0039980000000000    0.5104270000000000    0.3601520000000000 Li
   0.0039980000000000    0.5104270000000000    0.1398480000000000 Li
   0.7251170000000000    0.4972120000000000    0.7500000000000000 P
   0.4945070000000000    0.7514360000000000    0.5007080000000000 P
   0.4945070000000000    0.7514360000000000    0.9992920000000000 P
   0.9945070000000000    0.7485640000000000    0.4992920000000000 P
   0.2748830000000000    0.5027880000000000    0.2500000000000000 P
   0.7748830000000000    0.9972120000000000    0.7500000000000000 P
   0.7523069999999999    0.0205380000000000    0.2500000000000000 P
   0.2523070000000000    0.4794620000000000    0.7500000000000000 P
   0.2476930000000000    0.9794620000000001    0.7500000000000000 P
   0.0054930000000000    0.2514360000000000    0.9992920000000000 P
   0.5054930000000000    0.2485640000000000    0.0007080000000000 P
   0.7476930000000001    0.5205379999999999    0.2500000000000000 P
   0.2251170000000000    0.0027880000000000    0.2500000000000000 P
   0.0054930000000000    0.2514360000000000    0.5007080000000000 P
   0.5054930000000000    0.2485640000000000    0.4992920000000000 P
   0.9945070000000000    0.7485640000000000    0.0007080000000000 P
   0.1311090000000000    0.1802360000000000    0.0306600000000000 O
   0.8688910000000000    0.8197640000000000    0.5306600000000000 O
   0.1899990000000000    0.4928930000000000    0.3362630000000000 O
   0.6899990000000000    0.0071070000000000    0.6637370000000000 O
   0.1899990000000000    0.4928930000000000    0.1637370000000000 O
   0.3940580000000000    0.3515900000000000    0.0110970000000000 O
   0.3513740000000000    0.6344050000000000    0.2500000000000000 O
   0.4666600000000000    0.8183420000000000    0.5926280000000000 O
   0.8102279999999999    0.9569870000000000    0.1642130000000000 O
   0.3688910000000000    0.6802360000000000    0.0306600000000000 O
   0.6245830000000000    0.6119550000000000    0.7500000000000000 O
   0.8940580000000000    0.1484100000000000    0.5110970000000000 O
   0.8100010000000000    0.5071070000000000    0.6637370000000000 O
   0.8998920000000000    0.5030630000000000    0.2500000000000000 O
   0.8940580000000000    0.1484100000000000    0.9889030000000000 O
   0.3100010000000000    0.9928930000000000    0.3362630000000000 O
   0.9666600000000000    0.6816580000000000    0.4073720000000000 O
   0.1245830000000000    0.8880450000000000    0.2500000000000000 O
   0.8754170000000000    0.1119550000000000    0.7500000000000000 O
   0.4666600000000000    0.8183420000000000    0.9073720000000000 O
   0.1486260000000000    0.1344050000000000    0.2500000000000000 O
   0.3754170000000000    0.3880450000000000    0.2500000000000000 O
   0.6897720000000001    0.4569870000000000    0.1642130000000000 O
   0.8513740000000000    0.8655950000000000    0.7500000000000000 O
   0.6899990000000000    0.0071070000000000    0.8362630000000000 O
   0.5403140000000000    0.8554830000000000    0.4312660000000000 O
   0.8688910000000000    0.8197640000000000    0.9693400000000000 O
   0.7155330000000000    0.6698610000000000    0.2500000000000000 O
   0.8100010000000000    0.5071070000000000    0.8362630000000000 O
   0.6486260000000000    0.3655950000000000    0.7500000000000000 O
   0.5333400000000000    0.1816580000000000    0.4073720000000000 O
   0.9596860000000000    0.3554830000000000    0.4312660000000000 O
   0.9666600000000000    0.6816580000000000    0.0926280000000000 O
   0.6059420000000000    0.6484100000000000    0.9889030000000000 O
   0.0403140000000000    0.6445170000000000    0.5687340000000000 O
   0.3940580000000000    0.3515900000000000    0.4889030000000000 O
   0.1059420000000000    0.8515900000000000    0.0110970000000000 O
   0.0333400000000000    0.3183420000000000    0.5926280000000000 O
   0.6001080000000000    0.0030630000000000    0.2500000000000000 O
   0.4596860000000000    0.1445170000000000    0.9312660000000000 O
   0.3998920000000000    0.9969370000000000    0.7500000000000000 O
   0.1897720000000000    0.0430130000000000    0.8357869999999999 O
   0.3102280000000000    0.5430130000000000    0.6642130000000001 O
   0.6311090000000000    0.3197640000000000    0.9693400000000000 O
   0.5333400000000000    0.1816580000000000    0.0926280000000000 O
   0.9596860000000000    0.3554830000000000    0.0687340000000000 O
   0.6059420000000000    0.6484100000000000    0.5110970000000000 O
   0.2844670000000000    0.3301390000000000    0.7500000000000000 O
   0.7844670000000000    0.1698610000000000    0.2500000000000000 O
   0.6311090000000000    0.3197640000000000    0.5306600000000000 O
   0.1001080000000000    0.4969370000000000    0.7500000000000000 O
   0.3102280000000000    0.5430130000000000    0.8357869999999999 O
   0.3100010000000000    0.9928930000000000    0.1637370000000000 O
   0.1897720000000000    0.0430130000000000    0.6642130000000001 O
   0.5403140000000000    0.8554830000000000    0.0687340000000000 O
   0.4596860000000000    0.1445170000000000    0.5687340000000000 O
   0.8102279999999999    0.9569870000000000    0.3357870000000000 O
   0.0333400000000000    0.3183420000000000    0.9073720000000000 O
   0.2155330000000000    0.8301390000000000    0.7500000000000000 O
   0.1311090000000000    0.1802360000000000    0.4693400000000000 O
   0.3688910000000000    0.6802360000000000    0.4693400000000000 O
   0.0403140000000000    0.6445170000000000    0.9312660000000000 O
   0.6897720000000001    0.4569870000000000    0.3357870000000000 O
   0.1059420000000000    0.8515900000000000    0.4889030000000000 O
