pymatgen with grid density = 1043 / number of atoms
0
Gamma
5 5 5
