Li1 Sn1 P1 O4
1.0
  -2.6327910000000001    2.6327910000000001    3.8434230000000000
   2.6327910000000001   -2.6327910000000001    3.8434230000000000
   2.6327910000000001    2.6327910000000001   -3.8434230000000000
Li Sn P O
1 1 1 4
direct
   0.5000000000000000    0.5000000000000000    0.0000000000000000 Li
   0.0000000000000000    0.0000000000000000    0.0000000000000000 Sn
   0.2500000000000000    0.7500000000000000    0.5000000000000000 P
   0.3415580000000000    0.7699380000000000    0.8395990000000000 O
   0.4980410000000000    0.6584420000000000    0.4283810000000000 O
   0.9303390000000000    0.5019590000000000    0.1604010000000000 O
   0.2300620000000000    0.0696610000000000    0.5716190000000000 O
