ALGO = Fast
EDIFF = 0.0012000000000000001
ENCUT = 520
IBRION = 2
ISIF = 3
ISMEAR = -5
ISPIN = 2
LASPH = True
LMAXMIX = 6
LORBIT = 11
LREAL = Auto
LWAVE = False
MAGMOM = 4*0.0 2*0.001 4*0.0 2*-0.001 10*-0.0 2*-0.001
NELM = 100
NSW = 99
PREC = Accurate
SIGMA = 0.05
