Li4 B4 H24 O4
1.0
  -5.5767110000000004    0.0000000000000000    2.9306350000000001
   0.0000000000000000   -6.3508129999999996    0.0000000000000000
   5.5903280000000004    0.0000000000000000    7.1952360000000004
Li B H O
4 4 24 4
direct
   0.6296850000000001    0.0804280000000000    0.1369840000000000 Li
   0.8703149999999999    0.5804280000000001    0.3630160000000000 Li
   0.3703150000000000    0.9195719999999999    0.8630160000000000 Li
   0.1296850000000000    0.4195720000000000    0.6369840000000000 Li
   0.0301110000000000    0.0896260000000000    0.7379570000000000 B
   0.4698890000000000    0.5896260000000000    0.7620430000000000 B
   0.9698890000000000    0.9103740000000000    0.2620430000000000 B
   0.5301110000000000    0.4103740000000000    0.2379570000000000 B
   0.9100770000000000    0.7813990000000000    0.6166990000000000 H
   0.5899230000000000    0.2813990000000000    0.8833010000000000 H
   0.0899230000000000    0.2186010000000000    0.3833010000000000 H
   0.4100770000000000    0.7186010000000000    0.1166990000000000 H
   0.7461820000000000    0.6012850000000000    0.6254280000000000 H
   0.7538180000000000    0.1012850000000000    0.8745720000000000 H
   0.2538180000000000    0.3987150000000000    0.3745720000000000 H
   0.2461820000000000    0.8987150000000000    0.1254270000000000 H
   0.0353930000000000    0.9643870000000000    0.8410090000000000 H
   0.4646070000000000    0.4643870000000000    0.6589910000000000 H
   0.9646070000000000    0.0356130000000000    0.1589910000000000 H
   0.5353930000000000    0.5356130000000000    0.3410090000000000 H
   0.9021930000000000    0.0343830000000000    0.6275080000000000 H
   0.5978070000000000    0.5343830000000001    0.8724920000000000 H
   0.0978070000000000    0.9656169999999999    0.3724920000000000 H
   0.4021930000000000    0.4656170000000000    0.1275080000000000 H
   0.2093600000000000    0.1059280000000000    0.7031250000000000 H
   0.2906400000000000    0.6059280000000000    0.7968750000000000 H
   0.7906400000000000    0.8940720000000000    0.2968750000000000 H
   0.7093600000000000    0.3940720000000000    0.2031250000000000 H
   0.9733710000000000    0.2614930000000000    0.7789610000000000 H
   0.5266290000000000    0.7614930000000000    0.7210390000000000 H
   0.0266290000000000    0.7385070000000000    0.2210390000000000 H
   0.4733710000000000    0.2385070000000000    0.2789610000000000 H
   0.8790600000000000    0.6322580000000000    0.5867690000000000 O
   0.6209400000000000    0.1322580000000000    0.9132310000000000 O
   0.1209400000000000    0.3677420000000000    0.4132310000000000 O
   0.3790600000000000    0.8677420000000000    0.0867690000000000 O
