ALGO = Fast
EDIFF = 0.002
ENCUT = 520
IBRION = 2
ISIF = 3
ISMEAR = -5
ISPIN = 2
LASPH = True
LMAXMIX = 4
LORBIT = 11
LREAL = Auto
LWAVE = False
MAGMOM = 2*-0.005 2*-0.04 2*0.009 2*0.008 2*-0.007 2*0.001 2*0.314 2*0.042 2*0.046 2*0.009 2*-0.037 2*0.03 2*1.32 2*1.058 2*0.034 2*-0.055 2*-0.307 2*0.019 2*0.003 2*0.014
NELM = 100
NSW = 99
PREC = Accurate
SIGMA = 0.05
