pymatgen with grid density = 1225 / number of atoms
0
Gamma
2 3 2
