Li4 Sn4 P4 O16
1.0
  10.0072980000000005    0.0000000000000000    0.0000000000000000
   0.0000000000000000    5.7640330000000004    0.0000000000000000
   0.0000000000000000    4.6816040000000001    7.6436440000000001
Li Sn P O
4 4 4 16
direct
   0.1672170000000000    0.7898570000000000    0.5037670000000000 Li
   0.6672169999999999    0.2101430000000000    0.9962330000000000 Li
   0.3327830000000000    0.7898570000000000    0.0037670000000000 Li
   0.8327830000000001    0.2101430000000000    0.4962330000000000 Li
   0.6413020000000000    0.7584150000000000    0.4837750000000000 Sn
   0.1413020000000000    0.2415850000000000    0.0162250000000000 Sn
   0.8586980000000000    0.7584150000000000    0.9837750000000000 Sn
   0.3586980000000000    0.2415850000000000    0.5162250000000000 Sn
   0.4075180000000000    0.1151900000000000    0.2229260000000000 P
   0.9075180000000000    0.8848100000000000    0.2770740000000000 P
   0.0924820000000000    0.1151900000000000    0.7229260000000000 P
   0.5924820000000000    0.8848100000000000    0.7770740000000000 P
   0.6305620000000000    0.5886180000000000    0.8482280000000000 O
   0.8289770000000000    0.9937600000000000    0.3790440000000000 O
   0.3662570000000000    0.9450920000000000    0.4237050000000000 O
   0.5599390000000000    0.0630140000000000    0.2171470000000000 O
   0.0599390000000000    0.9369860000000000    0.2828530000000000 O
   0.8662570000000001    0.0549080000000000    0.0762950000000000 O
   0.3289770000000000    0.0062400000000000    0.1209560000000000 O
   0.1305620000000000    0.4113820000000000    0.6517720000000000 O
   0.8694380000000000    0.5886180000000000    0.3482280000000000 O
   0.6710230000000000    0.9937600000000000    0.8790440000000000 O
   0.1337430000000000    0.9450920000000000    0.9237050000000000 O
   0.9400610000000000    0.0630140000000000    0.7171470000000000 O
   0.4400610000000000    0.9369860000000000    0.7828530000000000 O
   0.6337429999999999    0.0549080000000000    0.5762950000000000 O
   0.1710230000000000    0.0062400000000000    0.6209560000000000 O
   0.3694380000000000    0.4113820000000000    0.1517720000000000 O
