pymatgen with grid density = 1487 / number of atoms
0
Gamma
2 2 2
