pymatgen with grid density = 1439 / number of atoms
0
Gamma
5 4 2
