pymatgen with grid density = 427 / number of atoms
0
Monkhorst
2 2 2
