Rb2 Ba8 Li1 Sb6 O2
1.0
   8.3139789999999998    0.2592650000000000   -4.1316490000000003
  -1.6479420000000000    8.1512790000000006   -4.1350080000000000
  -0.2260750000000000   -0.2895100000000000   10.6369699999999998
Rb Ba Li Sb O
2 8 1 6 2
direct
   0.0077680000000000    0.0066930000000000    0.0142540000000000 Rb
   0.5072190000000000    0.5065070000000000    0.0142050000000000 Rb
   0.5064410000000000    0.6920640000000000    0.6987880000000000 Ba
   0.1927880000000000    0.0058680000000000    0.6989040000000000 Ba
   0.8102180000000000    0.0031480000000000    0.3133190000000000 Ba
   0.0584800000000000    0.5534490000000000    0.7064990000000000 Ba
   0.5019420000000000    0.3098440000000000    0.3117190000000000 Ba
   0.6527470000000000    0.1477170000000000    0.7073900000000000 Ba
   0.9981150000000000    0.4981800000000000    0.2978750000000000 Ba
   0.2997130000000000    0.7997300000000001    0.2980360000000000 Ba
   0.8449870000000000    0.3613960000000000    0.7069910000000000 Li
   0.8758710000000000    0.6092200000000000    0.9852430000000000 Sb
   0.6252100000000000    0.1245380000000000    0.0062600000000000 Sb
   0.1034170000000000    0.3764350000000000    0.9801580000000000 Sb
   0.3816910000000000    0.8810080000000000    0.0060220000000000 Sb
   0.2517180000000000    0.2499560000000000    0.5009460000000000 Sb
   0.7508440000000000    0.7492630000000000    0.5008420000000000 Sb
   0.7477570000000000    0.2493480000000000    0.4956220000000000 O
   0.2473600000000000    0.7470660000000000    0.4944260000000000 O
