Li4 P12 N8 O44
1.0
   8.1345659999999995    0.0000000000000000   -2.3571350000000000
   0.0000000000000000   16.6025519999999993    0.0000000000000000
   0.1558110000000000    0.0000000000000000    7.6160639999999997
Li P N O
4 12 8 44
direct
   0.4161760000000000    0.2230350000000000    0.8248170000000000 Li
   0.5838240000000000    0.7230350000000000    0.6751830000000000 Li
   0.5838240000000000    0.7769650000000000    0.1751830000000000 Li
   0.4161760000000000    0.2769650000000000    0.3248170000000000 Li
   0.4905900000000000    0.1184130000000000    0.1457080000000000 P
   0.5094100000000000    0.6184130000000000    0.3542920000000000 P
   0.5094100000000000    0.8815870000000000    0.8542920000000001 P
   0.4905900000000000    0.3815870000000000    0.6457079999999999 P
   0.1668680000000000    0.1013390000000000    0.8888050000000000 P
   0.8331320000000000    0.6013390000000000    0.6111950000000000 P
   0.8331320000000000    0.8986610000000000    0.1111950000000000 P
   0.1668680000000000    0.3986610000000000    0.3888050000000000 P
   0.7515130000000000    0.0130340000000000    0.3638590000000000 P
   0.2484870000000000    0.5130340000000000    0.1361410000000000 P
   0.2484870000000000    0.9869660000000000    0.6361410000000000 P
   0.7515130000000000    0.4869660000000000    0.8638590000000000 P
   0.0237540000000000    0.1886250000000000    0.1161270000000000 N
   0.9762459999999999    0.6886250000000000    0.3838730000000000 N
   0.9762459999999999    0.8113750000000000    0.8838730000000000 N
   0.0237540000000000    0.3113750000000000    0.6161270000000000 N
   0.7221980000000000    0.3737710000000000    0.1328250000000000 N
   0.2778020000000000    0.8737710000000000    0.3671750000000000 N
   0.2778020000000000    0.6262290000000000    0.8671750000000000 N
   0.7221980000000000    0.1262290000000000    0.6328250000000000 N
   0.5506460000000000    0.1515890000000000    0.9918110000000000 O
   0.4493540000000000    0.6515890000000000    0.5081890000000000 O
   0.4493540000000000    0.8484110000000000    0.0081890000000000 O
   0.5506460000000000    0.3484110000000000    0.4918110000000000 O
   0.4856790000000000    0.1720990000000000    0.3022820000000000 O
   0.5143210000000000    0.6720990000000000    0.1977180000000000 O
   0.5143210000000000    0.8279010000000000    0.6977179999999999 O
   0.4856790000000000    0.3279010000000000    0.8022820000000001 O
   0.3065560000000000    0.0790020000000000    0.0669970000000000 O
   0.6934439999999999    0.5790020000000000    0.4330030000000000 O
   0.6934439999999999    0.9209980000000000    0.9330030000000000 O
   0.3065560000000000    0.4209980000000000    0.5669970000000000 O
   0.1404100000000000    0.0198400000000000    0.7713940000000000 O
   0.8595900000000000    0.5198400000000000    0.7286060000000000 O
   0.8595900000000000    0.9801600000000000    0.2286060000000000 O
   0.1404100000000000    0.4801600000000000    0.2713940000000000 O
   0.2080020000000000    0.1734890000000000    0.7930400000000000 O
   0.7919980000000000    0.6734890000000000    0.7069600000000000 O
   0.7919980000000000    0.8265110000000000    0.2069600000000000 O
   0.2080020000000000    0.3265110000000000    0.2930400000000000 O
   0.0035690000000000    0.1083730000000000    0.9474530000000000 O
   0.9964310000000000    0.6083730000000001    0.5525470000000000 O
   0.9964310000000000    0.8916269999999999    0.0525470000000000 O
   0.0035690000000000    0.3916270000000000    0.4474530000000000 O
   0.2777580000000000    0.0482010000000000    0.5075480000000000 O
   0.7222420000000001    0.5482010000000000    0.9924520000000000 O
   0.7222420000000001    0.9517990000000000    0.4924520000000000 O
   0.2777580000000000    0.4517990000000000    0.0075480000000000 O
   0.8322730000000000    0.0930240000000000    0.4420800000000000 O
   0.1677270000000000    0.5930240000000000    0.0579200000000000 O
   0.1677270000000000    0.9069760000000000    0.5579200000000000 O
   0.8322730000000000    0.4069760000000000    0.9420800000000000 O
   0.5816330000000000    0.0348190000000000    0.2161290000000000 O
   0.4183670000000000    0.5348190000000000    0.2838710000000000 O
   0.4183670000000000    0.9651810000000000    0.7838710000000000 O
   0.5816330000000000    0.4651810000000000    0.7161290000000000 O
   0.6546230000000000    0.4233440000000000    0.1833650000000000 O
   0.3453770000000000    0.9233440000000001    0.3166350000000000 O
   0.3453770000000000    0.5766559999999999    0.8166350000000000 O
   0.6546230000000000    0.0766560000000000    0.6833650000000000 O
   0.8980900000000001    0.2853060000000000    0.6059140000000000 O
   0.1019100000000000    0.7853059999999999    0.8940860000000000 O
   0.1019100000000000    0.7146940000000001    0.3940860000000000 O
   0.8980900000000001    0.2146940000000000    0.1059140000000000 O
