Li4 Er24 B12 O56
1.0
   6.1546200000000004    0.0000000000000000   -5.6442690000000004
  -6.1449340000000001    0.0000000000000000   -6.3035470000000000
   0.0000000000000000   15.4841940000000005    0.0000000000000000
Li Er B O
4 24 12 56
direct
   0.6805110000000000    0.5604950000000000    0.3960930000000000 Li
   0.3194890000000000    0.4395050000000000    0.6039070000000000 Li
   0.8194890000000000    0.9395050000000000    0.8960930000000000 Li
   0.1805110000000000    0.0604950000000000    0.1039070000000000 Li
   0.1425620000000000    0.6927500000000000    0.1778060000000000 Er
   0.8574380000000000    0.3072500000000000    0.8221940000000000 Er
   0.3574380000000000    0.8072500000000000    0.6778060000000000 Er
   0.6425620000000000    0.1927500000000000    0.3221940000000000 Er
   0.9602320000000000    0.9444390000000000    0.6739700000000000 Er
   0.0397680000000000    0.0555610000000000    0.3260300000000000 Er
   0.5397680000000000    0.5555610000000000    0.1739700000000000 Er
   0.4602320000000000    0.4444390000000000    0.8260300000000000 Er
   0.7270140000000000    0.5752900000000000    0.6439370000000000 Er
   0.2729860000000000    0.4247100000000000    0.3560630000000000 Er
   0.7729860000000000    0.9247100000000000    0.1439370000000000 Er
   0.2270140000000000    0.0752900000000000    0.8560630000000000 Er
   0.0519780000000000    0.7175950000000000    0.4868040000000000 Er
   0.9480220000000000    0.2824050000000000    0.5131960000000000 Er
   0.4480220000000000    0.7824050000000000    0.9868040000000000 Er
   0.5519780000000000    0.2175950000000000    0.0131960000000000 Er
   0.6996680000000000    0.9387770000000000    0.4960970000000000 Er
   0.3003320000000000    0.0612230000000000    0.5039030000000000 Er
   0.8003320000000000    0.5612230000000000    0.9960970000000000 Er
   0.1996680000000000    0.4387770000000000    0.0039030000000000 Er
   0.4218700000000000    0.8343550000000000    0.3341180000000000 Er
   0.5781300000000000    0.1656450000000000    0.6658820000000000 Er
   0.0781300000000000    0.6656450000000000    0.8341180000000000 Er
   0.9218700000000000    0.3343550000000000    0.1658820000000000 Er
   0.4288420000000000    0.9727090000000000    0.1730010000000000 B
   0.5711580000000001    0.0272910000000000    0.8269990000000000 B
   0.0711580000000000    0.5272910000000000    0.6730010000000000 B
   0.9288419999999999    0.4727090000000000    0.3269990000000000 B
   0.0641000000000000    0.8547040000000000    0.0005440000000000 B
   0.9359000000000000    0.1452960000000000    0.9994560000000000 B
   0.4359000000000000    0.6452960000000000    0.5005440000000000 B
   0.5641000000000000    0.3547040000000000    0.4994560000000000 B
   0.8202980000000000    0.7785170000000000    0.3069930000000000 B
   0.1797020000000000    0.2214830000000000    0.6930070000000000 B
   0.6797020000000000    0.7214830000000000    0.8069930000000000 B
   0.3202980000000000    0.2785170000000000    0.1930070000000000 B
   0.9404990000000000    0.8227409999999999    0.2483220000000000 O
   0.0595010000000000    0.1772590000000000    0.7516780000000000 O
   0.5595010000000000    0.6772590000000001    0.7483220000000000 O
   0.4404990000000000    0.3227410000000000    0.2516780000000000 O
   0.7110020000000000    0.4068090000000000    0.5335760000000001 O
   0.2889980000000000    0.5931910000000000    0.4664240000000000 O
   0.7889980000000000    0.0931910000000000    0.0335760000000000 O
   0.2110020000000000    0.9068090000000000    0.9664239999999999 O
   0.8439580000000000    0.7789430000000001    0.5793410000000000 O
   0.1560420000000000    0.2210570000000000    0.4206590000000000 O
   0.6560420000000000    0.7210569999999999    0.0793410000000000 O
   0.3439580000000000    0.2789430000000000    0.9206590000000000 O
   0.0280470000000000    0.8817400000000000    0.0861190000000000 O
   0.9719530000000000    0.1182600000000000    0.9138810000000001 O
   0.4719530000000000    0.6182600000000000    0.5861189999999999 O
   0.5280470000000000    0.3817400000000000    0.4138810000000000 O
   0.4661980000000000    0.9909930000000000    0.0868970000000000 O
   0.5338020000000000    0.0090070000000000    0.9131030000000000 O
   0.0338020000000000    0.5090070000000000    0.5868970000000000 O
   0.9661980000000000    0.4909930000000000    0.4131030000000000 O
   0.2817420000000000    0.9228240000000000    0.2049030000000000 O
   0.7182580000000000    0.0771760000000000    0.7950970000000001 O
   0.2182580000000000    0.5771760000000000    0.7049029999999999 O
   0.7817420000000000    0.4228240000000000    0.2950970000000000 O
   0.4564150000000000    0.2775290000000000    0.5517960000000000 O
   0.5435850000000000    0.7224720000000000    0.4482040000000000 O
   0.0435850000000000    0.2224710000000000    0.0517960000000000 O
   0.9564150000000000    0.7775280000000000    0.9482040000000000 O
   0.1925440000000000    0.8946320000000000    0.4017720000000000 O
   0.8074560000000000    0.1053680000000000    0.5982280000000000 O
   0.3074560000000000    0.6053680000000000    0.9017720000000000 O
   0.6925440000000000    0.3946320000000000    0.0982280000000000 O
   0.0088040000000000    0.5358820000000000    0.0896240000000000 O
   0.9911960000000000    0.4641180000000000    0.9103760000000000 O
   0.4911960000000000    0.9641180000000000    0.5896240000000000 O
   0.5088040000000000    0.0358820000000000    0.4103760000000000 O
   0.1623770000000000    0.8758230000000000    0.5854510000000001 O
   0.8376230000000000    0.1241770000000000    0.4145490000000000 O
   0.3376230000000000    0.6241770000000000    0.0854510000000000 O
   0.6623770000000000    0.3758230000000000    0.9145489999999999 O
   0.1540490000000000    0.8776320000000000    0.7683500000000000 O
   0.8459510000000000    0.1223680000000000    0.2316500000000000 O
   0.3459510000000000    0.6223680000000000    0.2683500000000000 O
   0.6540490000000000    0.3776320000000000    0.7316500000000000 O
   0.8265050000000000    0.7721620000000000    0.7746240000000000 O
   0.1734950000000000    0.2278380000000000    0.2253760000000000 O
   0.6734950000000000    0.7278380000000000    0.2746240000000000 O
   0.3265050000000000    0.2721620000000000    0.7253760000000000 O
   0.8516260000000000    0.7995139999999999    0.3939930000000000 O
   0.1483740000000000    0.2004860000000000    0.6060070000000000 O
   0.6483740000000000    0.7004860000000001    0.8939930000000000 O
   0.3516260000000000    0.2995140000000000    0.1060070000000000 O
   0.5505590000000000    0.9968320000000001    0.2328470000000000 O
   0.4494410000000000    0.0031680000000000    0.7671530000000000 O
   0.9494410000000000    0.5031679999999999    0.7328470000000000 O
   0.0505590000000000    0.4968320000000000    0.2671530000000000 O
