pymatgen with grid density = 1245 / number of atoms
0
Gamma
2 3 2
