ALGO = Fast
EDIFF = 0.0026000000000000003
ENCUT = 520
IBRION = 2
ISIF = 3
ISMEAR = -5
ISPIN = 2
LASPH = True
LMAXMIX = 6
LORBIT = 11
LREAL = Auto
LWAVE = False
MAGMOM = 4*0.0 4*-0.107 8*-0.002 8*0.025 4*0.081 4*0.015 4*0.007 4*0.015 4*0.009 4*0.065 4*0.665
NELM = 100
NSW = 99
PREC = Accurate
SIGMA = 0.05
