pymatgen with grid density = 1196 / number of atoms
0
Gamma
5 3 1
