ALGO = Fast
EDIFF = 0.0006500000000000001
ENCUT = 520
IBRION = 2
ISIF = 3
ISMEAR = -5
ISPIN = 2
LASPH = True
LMAXMIX = 6
LORBIT = 11
LREAL = Auto
LWAVE = False
MAGMOM = 1*0.003 2*0.362 2*0.011 1*0.003 1*0.009 1*0.01 1*0.003 1*0.009 2*0.003 1*0.01
NELM = 100
NSW = 99
PREC = Accurate
SIGMA = 0.05
