pymatgen with grid density = 1581 / number of atoms
0
Gamma
7 4 4
