Li1 H3 C2 O5
1.0
  -0.0985670000000000    0.0270010000000000    3.6045470000000002
  -5.0986750000000001    0.0457650000000000    0.9749090000000000
  -1.1298760000000001   -6.0305179999999998    0.5567290000000000
Li H C O
1 3 2 5
direct
   0.9298650000000001    0.1343970000000000    0.2988340000000000 Li
   0.6328670000000000    0.3529150000000000    0.7308560000000000 H
   0.3095190000000000    0.4963670000000000    0.3491170000000000 H
   0.3646870000000000    0.4535530000000000    0.1029520000000000 H
   0.9923350000000000    0.9966800000000000    0.8035369999999999 C
   0.2106020000000000    0.7599089999999999    0.6915480000000001 C
   0.0075080000000000    0.9976560000000000    0.0020230000000000 O
   0.7979190000000000    0.1861570000000000    0.6589220000000000 O
   0.1752880000000000    0.7755580000000000    0.4886340000000000 O
   0.4124130000000000    0.5675150000000000    0.8186990000000000 O
   0.3662060000000000    0.3531530000000000    0.2570080000000000 O
