Li6 Sn4 P10 O32
1.0
   7.5237220000000002    0.0000000000000000    0.0000000000000000
   0.0000000000000000    5.2597009999999997    0.0000000000000000
   0.0000000000000000    1.7812090000000000   18.6202809999999985
Li Sn P O
6 4 10 32
direct
   0.6288500000000000    0.2052560000000000    0.4592300000000000 Li
   0.3711500000000000    0.7947440000000000    0.5407700000000000 Li
   0.3711500000000000    0.2052560000000000    0.9592300000000000 Li
   0.6288500000000000    0.7947440000000000    0.0407700000000000 Li
   0.9659700000000000    0.5000000000000000    0.7500000000000000 Li
   0.0340300000000000    0.5000000000000000    0.2500000000000000 Li
   0.8546049999999999    0.2702420000000000    0.9212440000000000 Sn
   0.1453950000000000    0.2702420000000000    0.4212440000000000 Sn
   0.1453950000000000    0.7297580000000000    0.0787560000000000 Sn
   0.8546049999999999    0.7297580000000000    0.5787560000000000 Sn
   0.1558110000000000    0.7234790000000000    0.9060100000000000 P
   0.2487230000000000    0.0000000000000000    0.2500000000000000 P
   0.8441890000000000    0.2765210000000000    0.0939900000000000 P
   0.8441890000000000    0.7234790000000000    0.4060100000000000 P
   0.5244540000000000    0.2679730000000000    0.6243530000000000 P
   0.1558110000000000    0.2765210000000000    0.5939900000000000 P
   0.5244540000000000    0.7320270000000000    0.8756470000000000 P
   0.4755460000000000    0.2679730000000000    0.1243530000000000 P
   0.4755460000000000    0.7320270000000000    0.3756470000000000 P
   0.7512770000000000    0.0000000000000000    0.7500000000000000 P
   0.7951030000000000    0.4835790000000000    0.0330770000000000 O
   0.1474070000000000    0.1906390000000000    0.2892120000000000 O
   0.4268730000000000    0.5469970000000000    0.1077070000000000 O
   0.8547250000000000    0.0119650000000000    0.0673230000000000 O
   0.1452750000000000    0.0119650000000000    0.5673230000000000 O
   0.9961830000000000    0.6397320000000000    0.8621550000000000 O
   0.3848260000000000    0.1583150000000000    0.1978090000000000 O
   0.1474070000000000    0.8093610000000000    0.2107880000000000 O
   0.9961830000000000    0.3602680000000000    0.6378450000000000 O
   0.5731270000000001    0.5469970000000000    0.6077070000000000 O
   0.1452750000000000    0.9880350000000000    0.9326770000000000 O
   0.3217460000000000    0.2590120000000000    0.6517740000000000 O
   0.7951030000000000    0.5164210000000000    0.4669230000000000 O
   0.4268730000000000    0.4530030000000000    0.3922930000000000 O
   0.0038170000000000    0.6397320000000000    0.3621560000000000 O
   0.2048970000000000    0.4835790000000000    0.5330770000000000 O
   0.8525930000000000    0.1906390000000000    0.7892120000000000 O
   0.6151740000000000    0.8416850000000000    0.8021910000000000 O
   0.6151740000000000    0.1583150000000000    0.6978090000000000 O
   0.3848260000000000    0.8416850000000000    0.3021910000000000 O
   0.6782540000000000    0.7409880000000000    0.3482260000000000 O
   0.2048970000000000    0.5164210000000000    0.9669230000000000 O
   0.5731270000000001    0.4530030000000000    0.8922930000000000 O
   0.5569390000000000    0.0961080000000000    0.5655410000000000 O
   0.5569390000000000    0.9038920000000000    0.9344590000000000 O
   0.4430610000000000    0.0961080000000000    0.0655410000000000 O
   0.3217460000000000    0.7409880000000000    0.8482260000000000 O
   0.8525930000000000    0.8093610000000000    0.7107880000000000 O
   0.0038170000000000    0.3602680000000000    0.1378450000000000 O
   0.8547250000000000    0.9880350000000000    0.4326770000000000 O
   0.4430610000000000    0.9038920000000000    0.4344590000000000 O
   0.6782540000000000    0.2590120000000000    0.1517740000000000 O
