pymatgen with grid density = 1176 / number of atoms
0
Gamma
3 4 1
