Li6 Si4 Bi6 O20
1.0
   6.9054820000000001    0.0000000000000000    0.0000000000000000
   0.0000000000000000    5.4550640000000001    0.0000000000000000
   0.0000000000000000    0.3893760000000000   12.9040110000000006
Li Si Bi O
6 4 6 20
direct
   0.2691560000000000    0.0162970000000000    0.4630310000000000 Li
   0.5173350000000000    0.9799960000000000    0.2658400000000000 Li
   0.4826650000000000    0.9799960000000000    0.7658400000000000 Li
   0.7308440000000000    0.0162970000000000    0.9630310000000000 Li
   0.9616200000000000    0.4737790000000000    0.0580140000000000 Li
   0.0383800000000000    0.4737790000000000    0.5580140000000000 Li
   0.2620380000000000    0.5321750000000000    0.3418440000000000 Si
   0.2122150000000000    0.0048180000000000    0.0025160000000000 Si
   0.7379620000000000    0.5321750000000000    0.8418440000000000 Si
   0.7877850000000000    0.0048180000000000    0.5025160000000000 Si
   0.2574290000000000    0.4466920000000000    0.8249900000000000 Bi
   0.4920260000000000    0.4902870000000000    0.5946760000000000 Bi
   0.5079740000000000    0.4902870000000000    0.0946760000000000 Bi
   0.7425710000000000    0.4466920000000000    0.3249900000000000 Bi
   0.0330800000000000    0.9508860000000000    0.7119930000000000 Bi
   0.9669200000000000    0.9508860000000000    0.2119930000000000 Bi
   0.3210950000000000    0.8185020000000000    0.3457860000000000 O
   0.2562420000000000    0.3920400000000000    0.4578110000000000 O
   0.2206350000000000    0.0155030000000000    0.8735380000000000 O
   0.1980760000000000    0.2898870000000000    0.0416440000000000 O
   0.2996130000000000    0.7382350000000000    0.6985209999999999 O
   0.2359290000000000    0.2545240000000000    0.6771770000000000 O
   0.4113210000000000    0.8819970000000000    0.0508900000000000 O
   0.4177790000000000    0.3731110000000000    0.2695360000000000 O
   0.5822210000000000    0.3731110000000000    0.7695360000000000 O
   0.5886790000000000    0.8819970000000000    0.5508900000000000 O
   0.6789050000000000    0.8185020000000000    0.8457860000000000 O
   0.7793650000000000    0.0155030000000000    0.3735380000000000 O
   0.8019240000000000    0.2898870000000000    0.5416440000000000 O
   0.7437580000000000    0.3920400000000000    0.9578110000000000 O
   0.7640709999999999    0.2545240000000000    0.1771770000000000 O
   0.7003870000000000    0.7382350000000000    0.1985210000000000 O
   0.9877160000000000    0.8546100000000000    0.5416360000000000 O
   0.9484180000000000    0.5167170000000000    0.7805120000000000 O
   0.0515820000000000    0.5167170000000000    0.2805120000000000 O
   0.0122840000000000    0.8546100000000000    0.0416360000000000 O
