ALGO = Fast
EDIFF = 0.0008
ENCUT = 520
IBRION = 2
ISIF = 3
ISMEAR = -5
ISPIN = 2
LASPH = True
LMAXMIX = 4
LORBIT = 11
LREAL = Auto
LWAVE = False
MAGMOM = 2*-0.002 1*-0.021 1*-0.017 2*-0.002 2*0.06 2*0.012 2*0.045 2*0.625 2*0.083
NELM = 100
NSW = 99
PREC = Accurate
SIGMA = 0.05
