ALGO = Fast
EDIFF = 0.00115
ENCUT = 520
IBRION = 2
ISIF = 3
ISMEAR = -5
ISPIN = 2
LASPH = True
LMAXMIX = 4
LORBIT = 11
LREAL = Auto
LWAVE = False
MAGMOM = 4*0.001 1*0.0 2*0.11 2*0.001 2*0.065 2*0.001 2*0.034 2*0.001 2*0.136 2*0.002 1*0.088 1*0.002
NELM = 100
NSW = 99
PREC = Accurate
SIGMA = 0.05
