Rb4 Li1 Se4 O14
1.0
   7.4540050000000004    4.1161149999999997    0.3003140000000000
   7.4540050000000004   -4.1161149999999997    0.3003140000000000
  -0.8810090000000000    0.0000000000000000   -7.5745990000000001
Rb Li Se O
4 1 4 14
direct
   0.0660140000000000    0.6078650000000000    0.3186600000000000 Rb
   0.3921350000000000    0.9339860000000000    0.1813400000000000 Rb
   0.8741280000000000    0.4255050000000000    0.6744560000000001 Rb
   0.5744950000000000    0.1258720000000000    0.8255439999999999 Rb
   0.4954160000000000    0.5045840000000000    0.2500000000000000 Li
   0.6967400000000000    0.1223320000000000    0.3651770000000000 Se
   0.8776680000000000    0.3032600000000000    0.1348230000000000 Se
   0.3266550000000000    0.8460680000000000    0.6375480000000000 Se
   0.1539320000000000    0.6733450000000000    0.8624520000000000 Se
   0.6805560000000000    0.2421750000000000    0.5602050000000000 O
   0.7578240000000001    0.3194440000000000    0.9397950000000000 O
   0.3550420000000000    0.7054319999999999    0.4557730000000000 O
   0.2945670000000000    0.6449580000000000    0.0442270000000000 O
   0.5076880000000000    0.2602170000000000    0.2297620000000000 O
   0.7397830000000000    0.4923120000000000    0.2702380000000000 O
   0.5086100000000000    0.7732869999999999    0.7834670000000000 O
   0.2267130000000000    0.4913900000000000    0.7165330000000000 O
   0.7006019999999999    0.9244630000000000    0.3874660000000000 O
   0.0755370000000000    0.2993980000000000    0.1125340000000000 O
   0.2337090000000000    0.0635530000000000    0.5939270000000000 O
   0.9364470000000000    0.7662910000000001    0.9060730000000000 O
   0.8962340000000000    0.1037660000000000    0.2500000000000000 O
   0.1378380000000000    0.8621620000000000    0.7500000000000000 O
