pymatgen with grid density = 1405 / number of atoms
0
Gamma
4 4 5
