ALGO = Fast
EDIFF = 0.00055
ENCUT = 520
IBRION = 2
ISIF = 3
ISMEAR = -5
ISPIN = 2
LASPH = True
LMAXMIX = 4
LORBIT = 11
LREAL = Auto
LWAVE = False
MAGMOM = 1*0.015 1*0.041 1*0.025 1*0.234 1*0.007 1*0.08 1*0.079 1*0.084 3*0.004
NELM = 100
NSW = 99
PREC = Accurate
SIGMA = 0.05
