ALGO = Fast
EDIFF = 0.00125
ENCUT = 520
IBRION = 2
ISIF = 3
ISMEAR = -5
ISPIN = 2
LASPH = True
LMAXMIX = 6
LORBIT = 11
LREAL = Auto
LWAVE = False
MAGMOM = 1*0.068 1*0.157 1*0.489 2*0.038 1*-0.0 3*0.001 2*0.003 1*-0.002 1*0.003 1*0.012 1*0.003 2*0.001 1*0.0 1*0.003 2*-0.0 2*0.002 1*0.003 1*0.0
NELM = 100
NSW = 99
PREC = Accurate
SIGMA = 0.05
