Li2 Sm2 P8 O24
1.0
   3.5692889999999999    8.2869440000000001    0.0000000000000000
  -3.5692889999999999    8.2869440000000001    0.0000000000000000
   0.0000000000000000    5.8047630000000003    7.9143039999999996
Li Sm P O
2 2 8 24
direct
   0.7974450000000000    0.2025550000000000    0.7500000000000000 Li
   0.2025550000000000    0.7974450000000000    0.2500000000000000 Li
   0.7005550000000000    0.2994450000000000    0.2500000000000000 Sm
   0.2994450000000000    0.7005550000000000    0.7500000000000000 Sm
   0.1927020000000000    0.0834910000000000    0.3379470000000000 P
   0.9165090000000000    0.8072980000000000    0.1620530000000000 P
   0.8072980000000000    0.9165090000000000    0.6620530000000000 P
   0.0834910000000000    0.1927020000000000    0.8379470000000000 P
   0.8031670000000000    0.4923860000000000    0.4025490000000000 P
   0.5076140000000000    0.1968330000000000    0.0974510000000000 P
   0.1968330000000000    0.5076140000000000    0.5974510000000000 P
   0.4923860000000000    0.8031670000000000    0.9025490000000000 P
   0.3300650000000000    0.8971690000000000    0.4539770000000000 O
   0.1028310000000000    0.6699349999999999    0.0460230000000000 O
   0.6699349999999999    0.1028310000000000    0.5460230000000000 O
   0.8971690000000000    0.3300650000000000    0.9539770000000000 O
   0.0378440000000000    0.2804390000000000    0.4147840000000000 O
   0.7195610000000000    0.9621560000000000    0.0852160000000000 O
   0.9621560000000000    0.7195610000000000    0.5852160000000000 O
   0.2804390000000000    0.0378440000000000    0.9147840000000000 O
   0.6662430000000000    0.4812860000000000    0.5827460000000000 O
   0.5187140000000000    0.3337570000000000    0.9172540000000000 O
   0.3337570000000000    0.5187140000000000    0.4172540000000000 O
   0.4812860000000000    0.6662430000000000    0.0827460000000000 O
   0.7438180000000000    0.5128650000000000    0.2746070000000000 O
   0.4871350000000000    0.2561820000000000    0.2253930000000000 O
   0.2561820000000000    0.4871350000000000    0.7253930000000000 O
   0.5128650000000000    0.7438180000000000    0.7746070000000000 O
   0.0700170000000000    0.0624290000000000    0.2967200000000000 O
   0.9375710000000000    0.9299830000000000    0.2032800000000000 O
   0.9299830000000000    0.9375710000000000    0.7032800000000000 O
   0.0624290000000000    0.0700170000000000    0.7967200000000000 O
   0.3282900000000000    0.1603020000000000    0.1570760000000000 O
   0.8396980000000001    0.6717100000000000    0.3429240000000000 O
   0.6717100000000000    0.8396980000000001    0.8429240000000000 O
   0.1603020000000000    0.3282900000000000    0.6570760000000000 O
