Sr2 Li4 Al8 P8 O40
1.0
  -3.7370459999999999    5.8401149999999999    7.9637190000000002
   3.7370459999999999   -5.8401149999999999    7.9637190000000002
   3.7370459999999999    5.8401149999999999   -7.9637190000000002
Sr Li Al P O
2 4 8 8 40
direct
   0.2500000000000000    0.0000000000000000    0.2500000000000000 Sr
   0.7500000000000000    0.0000000000000000    0.7500000000000000 Sr
   0.2884370000000000    0.5669300000000000    0.2784930000000000 Li
   0.7115629999999999    0.4330700000000000    0.7215070000000000 Li
   0.7884370000000001    0.0099440000000000    0.2215070000000000 Li
   0.2115630000000000    0.9900560000000000    0.7784930000000000 Li
   0.0063780000000000    0.5174879999999999    0.7723300000000000 Al
   0.2548430000000000    0.4825120000000000    0.4888910000000000 Al
   0.2451570000000000    0.2340480000000000    0.7276700000000000 Al
   0.4936220000000000    0.7659520000000000    0.0111090000000000 Al
   0.9936220000000000    0.4825120000000000    0.2276700000000000 Al
   0.7451570000000000    0.5174879999999999    0.5111090000000000 Al
   0.7548430000000000    0.7659520000000000    0.2723300000000000 Al
   0.5063780000000000    0.2340480000000000    0.9888910000000000 Al
   0.0415700000000000    0.7915700000000000    0.2500000000000000 P
   0.4584300000000000    0.2084300000000000    0.2500000000000000 P
   0.9584300000000000    0.2084300000000000    0.7500000000000000 P
   0.5415700000000000    0.7915700000000000    0.7500000000000000 P
   0.9573890000000000    0.2316980000000000    0.2743090000000000 P
   0.0426110000000000    0.7683020000000000    0.7256910000000000 P
   0.4573890000000000    0.6830810000000000    0.2256910000000000 P
   0.5426110000000000    0.3169190000000000    0.7743090000000000 P
   0.9107560000000000    0.3043630000000000    0.6831530000000000 O
   0.3787900000000000    0.6956369999999999    0.6063920000000000 O
   0.1212100000000000    0.2276030000000000    0.8168470000000000 O
   0.5892440000000000    0.7723970000000000    0.8936080000000000 O
   0.0892440000000000    0.6956369999999999    0.3168470000000000 O
   0.6212100000000000    0.3043630000000000    0.3936080000000000 O
   0.8787900000000000    0.7723970000000000    0.1831530000000000 O
   0.4107560000000000    0.2276030000000000    0.1063920000000000 O
   0.0764030000000000    0.6919340000000000    0.0666390000000000 O
   0.3747050000000000    0.3080660000000000    0.3844680000000000 O
   0.1252950000000000    0.0097630000000000    0.4333610000000000 O
   0.4235970000000000    0.9902370000000000    0.1155320000000000 O
   0.9235970000000000    0.3080660000000000    0.9333610000000000 O
   0.6252950000000000    0.6919340000000000    0.6155320000000000 O
   0.8747050000000000    0.9902370000000000    0.5666390000000000 O
   0.5764030000000000    0.0097630000000000    0.8844680000000000 O
   0.8988020000000000    0.0126330000000000    0.1138310000000000 O
   0.1011980000000000    0.9873670000000000    0.8861690000000000 O
   0.3988020000000000    0.7849710000000000    0.3861690000000000 O
   0.6011980000000000    0.2150290000000000    0.6138310000000000 O
   0.9021190000000000    0.3524180000000000    0.4502990000000000 O
   0.0978810000000000    0.6475820000000000    0.5497010000000000 O
   0.4021190000000000    0.4518200000000000    0.0497010000000000 O
   0.5978810000000000    0.5481800000000000    0.9502990000000000 O
   0.0939350000000000    0.7133630000000000    0.8365650000000000 O
   0.1232020000000000    0.2866370000000000    0.3805720000000000 O
   0.3767980000000000    0.2573700000000000    0.6634350000000000 O
   0.4060650000000000    0.7426300000000000    0.1194280000000000 O
   0.9060650000000000    0.2866370000000000    0.1634350000000000 O
   0.8767980000000000    0.7133630000000000    0.6194280000000000 O
   0.6232020000000000    0.7426300000000000    0.3365650000000000 O
   0.5939350000000000    0.2573700000000000    0.8805720000000000 O
   0.8328989999999999    0.5806249999999999    0.7477260000000000 O
   0.1671010000000000    0.4193750000000000    0.2522740000000000 O
   0.3328990000000000    0.0851730000000000    0.7522740000000000 O
   0.6671010000000001    0.9148269999999999    0.2477260000000000 O
   0.1548180000000000    0.4048180000000000    0.7500000000000000 O
   0.3451820000000000    0.5951820000000000    0.7500000000000000 O
   0.8451820000000000    0.5951820000000000    0.2500000000000000 O
   0.6548180000000000    0.4048180000000000    0.2500000000000000 O
