K1 Li1 Mg30 O31
1.0
   8.4791407200000002    0.0000000000000000    0.0000000000000000
   0.0000000000000000    8.6443637199999994    0.0000000000000000
   0.0000000000000000    0.0000000000000000    8.6142142199999991
K Li Mg O
1 1 30 31
direct
   0.0567975600000000    0.0000000000000000    0.0000000000000000 K
   0.9892907500000000    0.0000000000000000    0.5000000000000000 Li
   0.9919674400000000    0.5000000000000000    0.0000000000000000 Mg
   0.9964606900000000    0.5000000000000000    0.5000000000000000 Mg
   0.5211067700000001    0.0000000000000000    0.0000000000000000 Mg
   0.5028027000000000    0.0000000000000000    0.5000000000000000 Mg
   0.5040552300000000    0.5000000000000000    0.0000000000000000 Mg
   0.5008638399999999    0.5000000000000000    0.5000000000000000 Mg
   0.9973860800000000    0.2480487700000000    0.2558071400000000 Mg
   0.9973860800000000    0.2480487700000000    0.7441928600000000 Mg
   0.9973860800000000    0.7519512300000000    0.2558071400000000 Mg
   0.9973860800000000    0.7519512300000000    0.7441928600000000 Mg
   0.4991672000000000    0.2473709500000000    0.2491038100000000 Mg
   0.4991672000000000    0.2473709500000000    0.7508961900000000 Mg
   0.4991672000000000    0.7526290500000000    0.2491038100000000 Mg
   0.4991672000000000    0.7526290500000000    0.7508961900000000 Mg
   0.2428321600000000    0.0000000000000000    0.2801549800000000 Mg
   0.2428321600000000    0.0000000000000000    0.7198450199999999 Mg
   0.2474664900000000    0.5000000000000000    0.2542182800000000 Mg
   0.2474664900000000    0.5000000000000000    0.7457817200000000 Mg
   0.7603714499999999    0.0000000000000000    0.2526908400000000 Mg
   0.7603714499999999    0.0000000000000000    0.7473091600000000 Mg
   0.7492947300000000    0.5000000000000000    0.2511352100000000 Mg
   0.7492947300000000    0.5000000000000000    0.7488647899999999 Mg
   0.2477104700000000    0.2771902000000000    0.0000000000000000 Mg
   0.2459540600000000    0.2504020600000000    0.5000000000000000 Mg
   0.2477104700000000    0.7228097999999999    0.0000000000000000 Mg
   0.2459540600000000    0.7495979400000000    0.5000000000000000 Mg
   0.7574147400000000    0.2465039400000000    0.0000000000000000 Mg
   0.7518627800000000    0.2465221300000000    0.5000000000000000 Mg
   0.7574147400000000    0.7534960600000000    0.0000000000000000 Mg
   0.7518627800000000    0.7534778700000000    0.5000000000000000 Mg
   0.2644811200000000    0.0000000000000000    0.5000000000000000 O
   0.2561619700000000    0.5000000000000000    0.0000000000000000 O
   0.2525737600000000    0.5000000000000000    0.5000000000000000 O
   0.7508313300000000    0.0000000000000000    0.0000000000000000 O
   0.7381098600000000    0.0000000000000000    0.5000000000000000 O
   0.7440101000000000    0.5000000000000000    0.0000000000000000 O
   0.7456095800000000    0.5000000000000000    0.5000000000000000 O
   0.2478673000000000    0.2433953900000000    0.2427331000000000 O
   0.2478673000000000    0.2433953900000000    0.7572669000000000 O
   0.2478673000000000    0.7566046100000000    0.2427331000000000 O
   0.2478673000000000    0.7566046100000000    0.7572669000000000 O
   0.7477713200000000    0.2490711500000000    0.2490936200000000 O
   0.7477713200000000    0.2490711500000000    0.7509063800000000 O
   0.7477713200000000    0.7509288500000000    0.2490936200000000 O
   0.7477713200000000    0.7509288500000000    0.7509063800000000 O
   0.0019634300000000    0.0000000000000000    0.2715553100000000 O
   0.0019634300000000    0.0000000000000000    0.7284446900000000 O
   0.0003711500000000    0.5000000000000000    0.2517372500000000 O
   0.0003711500000000    0.5000000000000000    0.7482627500000000 O
   0.4895718600000000    0.0000000000000000    0.2406161300000000 O
   0.4895718600000000    0.0000000000000000    0.7593838700000000 O
   0.4965133100000000    0.5000000000000000    0.2485202700000000 O
   0.4965133100000000    0.5000000000000000    0.7514797300000000 O
   0.0021474400000000    0.2709935800000000    0.0000000000000000 O
   0.0008968400000000    0.2618517400000000    0.5000000000000000 O
   0.0021474400000000    0.7290064200000000    0.0000000000000000 O
   0.0008968400000000    0.7381482600000000    0.5000000000000000 O
   0.4921375000000000    0.2439565100000000    0.0000000000000000 O
   0.4965464100000000    0.2505470800000000    0.5000000000000000 O
   0.4921375000000000    0.7560434900000000    0.0000000000000000 O
   0.4965464100000000    0.7494529200000000    0.5000000000000000 O
