Li12 Nd8 B12 O36
1.0
  14.2291469999999993    0.0000000000000000    0.0000000000000000
   0.0000000000000000    5.8448180000000001    0.0000000000000000
   0.0000000000000000    3.6932700000000001    8.6579250000000005
Li Nd B O
12 8 12 36
direct
   0.6650910000000000    0.4259860000000000    0.5031190000000000 Li
   0.8876860000000000    0.9505190000000000    0.2085290000000000 Li
   0.3876860000000000    0.0494810000000000    0.2914710000000000 Li
   0.1123140000000000    0.0494810000000000    0.7914710000000000 Li
   0.6123140000000000    0.9505190000000000    0.7085290000000000 Li
   0.8349090000000000    0.4259860000000000    0.0031190000000000 Li
   0.3349090000000000    0.5740140000000000    0.4968810000000000 Li
   0.1650910000000000    0.5740140000000000    0.9968810000000000 Li
   0.7150040000000000    0.5811330000000000    0.7102560000000000 Li
   0.2150040000000000    0.4188670000000000    0.7897440000000000 Li
   0.2849960000000000    0.4188670000000000    0.2897440000000000 Li
   0.7849960000000000    0.5811330000000000    0.2102560000000000 Li
   0.5032060000000000    0.6532300000000000    0.1585880000000000 Nd
   0.0032060000000000    0.3467700000000000    0.3414120000000000 Nd
   0.4967940000000000    0.3467700000000000    0.8414120000000000 Nd
   0.9967940000000000    0.6532300000000000    0.6585880000000000 Nd
   0.6637220000000000    0.0589850000000000    0.3076410000000000 Nd
   0.1637220000000000    0.9410150000000000    0.1923590000000000 Nd
   0.3362780000000000    0.9410150000000000    0.6923589999999999 Nd
   0.8362780000000000    0.0589850000000000    0.8076410000000001 Nd
   0.0154780000000000    0.2630370000000000    0.9864760000000000 B
   0.8231250000000000    0.1138430000000000    0.4820060000000000 B
   0.3231250000000000    0.8861570000000000    0.0179940000000000 B
   0.1768750000000000    0.8861570000000000    0.5179940000000000 B
   0.6768750000000000    0.1138430000000000    0.9820060000000000 B
   0.5154780000000000    0.7369630000000000    0.5135240000000000 B
   0.4845220000000000    0.2630370000000000    0.4864760000000000 B
   0.9845220000000000    0.7369630000000000    0.0135240000000000 B
   0.8367960000000000    0.6154700000000000    0.4718090000000000 B
   0.3367960000000000    0.3845300000000000    0.0281910000000000 B
   0.1632040000000000    0.3845300000000000    0.5281910000000000 B
   0.6632040000000000    0.6154700000000000    0.9718090000000000 B
   0.8964569999999999    0.6929680000000000    0.0800350000000000 O
   0.4926560000000000    0.1580970000000000    0.6463200000000000 O
   0.0073440000000000    0.1580970000000000    0.1463200000000000 O
   0.5073440000000000    0.8419030000000000    0.3536800000000000 O
   0.6035430000000001    0.6929680000000000    0.5800350000000000 O
   0.9926560000000000    0.8419030000000000    0.8536800000000000 O
   0.1035430000000000    0.3070320000000000    0.9199650000000000 O
   0.3964570000000000    0.3070320000000000    0.4199650000000000 O
   0.8318070000000000    0.5038560000000000    0.6317050000000000 O
   0.3318070000000000    0.4961440000000000    0.8682950000000000 O
   0.1681930000000000    0.4961440000000000    0.3682950000000000 O
   0.6681930000000000    0.5038560000000000    0.1317050000000000 O
   0.9259690000000000    0.6619440000000000    0.4067680000000000 O
   0.4259690000000000    0.3380560000000000    0.0932320000000000 O
   0.0740310000000000    0.3380560000000000    0.5932320000000000 O
   0.5740310000000000    0.6619440000000000    0.9067680000000000 O
   0.7579540000000000    0.6846430000000000    0.3787380000000000 O
   0.2579540000000000    0.3153570000000000    0.1212620000000000 O
   0.2420460000000000    0.3153570000000000    0.6212620000000000 O
   0.7420460000000000    0.6846430000000000    0.8787380000000000 O
   0.9051700000000000    0.0421780000000000    0.5692400000000000 O
   0.4051700000000000    0.9578220000000000    0.9307600000000000 O
   0.0948300000000000    0.9578220000000000    0.4307600000000000 O
   0.5948300000000000    0.0421780000000000    0.0692400000000000 O
   0.7374640000000000    0.0950400000000000    0.5542020000000000 O
   0.2374640000000000    0.9049600000000000    0.9457980000000000 O
   0.2625360000000000    0.9049600000000000    0.4457980000000000 O
   0.5641820000000000    0.3221980000000000    0.3934780000000000 O
   0.8308720000000001    0.2128840000000000    0.3219040000000000 O
   0.3308720000000000    0.7871160000000000    0.1780960000000000 O
   0.1691280000000000    0.7871160000000000    0.6780960000000000 O
   0.6691279999999999    0.2128840000000000    0.8219040000000000 O
   0.9358180000000000    0.3221980000000000    0.8934780000000000 O
   0.4358180000000000    0.6778020000000000    0.6065220000000000 O
   0.0641820000000000    0.6778020000000000    0.1065220000000000 O
   0.7625360000000000    0.0950400000000000    0.0542020000000000 O
