pymatgen with grid density = 1561 / number of atoms
0
Gamma
1 3 3
