Li24 Ho4 B12 O36
1.0
  16.5097820000000013    0.0000000000000000    0.0000000000000000
   0.0000000000000000    6.7021129999999998    0.0000000000000000
   0.0000000000000000    1.9169879999999999    6.9860009999999999
Li Ho B O
24 4 12 36
direct
   0.0300950000000000    0.3299600000000000    0.5461470000000000 Li
   0.5300950000000000    0.1700400000000000    0.4538530000000000 Li
   0.9699050000000000    0.6700400000000000    0.4538530000000000 Li
   0.4699050000000000    0.8299600000000000    0.5461470000000000 Li
   0.2048890000000000    0.0454510000000000    0.4373470000000000 Li
   0.7048890000000000    0.4545490000000000    0.5626530000000000 Li
   0.7951110000000000    0.9545490000000000    0.5626530000000000 Li
   0.2951110000000000    0.5454510000000000    0.4373470000000000 Li
   0.9467650000000000    0.4136380000000000    0.1367130000000000 Li
   0.4467650000000000    0.0863620000000000    0.8632870000000000 Li
   0.0532350000000000    0.5863620000000000    0.8632870000000000 Li
   0.5532350000000000    0.9136380000000000    0.1367130000000000 Li
   0.2058780000000000    0.6349390000000000    0.7152330000000000 Li
   0.7058780000000000    0.8650610000000000    0.2847670000000000 Li
   0.7941220000000000    0.3650610000000000    0.2847670000000000 Li
   0.2941220000000000    0.1349390000000000    0.7152330000000000 Li
   0.0352430000000000    0.0559160000000000    0.3062890000000000 Li
   0.5352430000000000    0.4440840000000000    0.6937110000000000 Li
   0.9647570000000000    0.9440840000000000    0.6937110000000000 Li
   0.4647570000000000    0.5559160000000000    0.3062890000000000 Li
   0.9955770000000000    0.8238010000000000    0.0715800000000000 Li
   0.4955770000000000    0.6761990000000000    0.9284200000000000 Li
   0.0044230000000000    0.1761990000000000    0.9284200000000000 Li
   0.5044230000000000    0.3238010000000000    0.0715800000000000 Li
   0.3099880000000000    0.3471690000000000    0.0795210000000000 Ho
   0.8099880000000000    0.1528310000000000    0.9204790000000000 Ho
   0.6900120000000000    0.6528310000000001    0.9204790000000000 Ho
   0.1900120000000000    0.8471689999999999    0.0795210000000000 Ho
   0.8788610000000000    0.0013340000000000    0.2854050000000000 B
   0.3788610000000000    0.4986660000000000    0.7145950000000000 B
   0.1211390000000000    0.9986660000000001    0.7145950000000000 B
   0.6211390000000000    0.5013339999999999    0.2854050000000000 B
   0.1359910000000000    0.3383870000000000    0.0836700000000000 B
   0.6359910000000000    0.1616130000000000    0.9163300000000000 B
   0.8640090000000000    0.6616130000000000    0.9163300000000000 B
   0.3640090000000000    0.8383870000000000    0.0836700000000000 B
   0.3844180000000000    0.1898640000000000    0.4384670000000000 B
   0.8844180000000000    0.3101360000000000    0.5615329999999999 B
   0.6155820000000000    0.8101360000000000    0.5615329999999999 B
   0.1155820000000000    0.6898640000000000    0.4384670000000000 B
   0.9256000000000000    0.0434790000000000    0.1191560000000000 O
   0.4256000000000000    0.4565210000000000    0.8808440000000000 O
   0.0744000000000000    0.9565210000000000    0.8808440000000000 O
   0.5744000000000000    0.5434790000000000    0.1191560000000000 O
   0.7973470000000000    0.0583200000000000    0.2588360000000000 O
   0.2973470000000000    0.4416800000000000    0.7411640000000000 O
   0.2026530000000000    0.9416800000000000    0.7411640000000000 O
   0.7026530000000000    0.5583200000000000    0.2588360000000000 O
   0.9112830000000000    0.9138590000000000    0.4624360000000000 O
   0.4112830000000000    0.5861410000000000    0.5375640000000000 O
   0.0887170000000000    0.0861410000000000    0.5375640000000000 O
   0.5887170000000000    0.4138590000000000    0.4624360000000000 O
   0.0535900000000000    0.3241380000000000    0.0881930000000000 O
   0.5535900000000000    0.1758620000000000    0.9118070000000000 O
   0.9464100000000000    0.6758620000000000    0.9118070000000000 O
   0.4464100000000000    0.8241380000000000    0.0881930000000000 O
   0.3255740000000000    0.0284550000000000    0.0090790000000000 O
   0.8255740000000000    0.4715450000000000    0.9909210000000001 O
   0.6744260000000000    0.9715450000000000    0.9909210000000001 O
   0.1744260000000000    0.5284550000000000    0.0090790000000000 O
   0.1858700000000000    0.1656610000000000    0.1437930000000000 O
   0.6858700000000000    0.3343390000000000    0.8562070000000001 O
   0.8141300000000000    0.8343390000000001    0.8562070000000001 O
   0.3141300000000000    0.6656609999999999    0.1437930000000000 O
   0.4208980000000000    0.0774770000000000    0.6050700000000000 O
   0.9208980000000000    0.4225230000000000    0.3949300000000000 O
   0.5791020000000000    0.9225230000000000    0.3949300000000000 O
   0.0791020000000000    0.5774770000000000    0.6050700000000000 O
   0.3016020000000000    0.2295600000000000    0.4197410000000000 O
   0.8016020000000000    0.2704400000000000    0.5802590000000000 O
   0.6983980000000000    0.7704400000000000    0.5802590000000000 O
   0.1983980000000000    0.7295600000000000    0.4197410000000000 O
   0.4310100000000000    0.2715350000000000    0.2753270000000000 O
   0.9310100000000000    0.2284650000000000    0.7246730000000000 O
   0.5689900000000000    0.7284650000000000    0.7246730000000000 O
   0.0689900000000000    0.7715350000000000    0.2753270000000000 O
