ALGO = Fast
EDIFF = 0.0032
ENCUT = 520
IBRION = 2
ISIF = 3
ISMEAR = -5
ISPIN = 2
LASPH = True
LMAXMIX = 6
LORBIT = 11
LREAL = Auto
LWAVE = False
MAGMOM = 4*0.001 4*0.004 4*0.0 8*0.001 4*-0.0 4*0.004 4*0.014 4*0.012 4*0.0 4*0.74 4*0.0 8*0.001 4*0.844 4*0.006
NELM = 100
NSW = 99
PREC = Accurate
SIGMA = 0.05
