pymatgen with grid density = 753 / number of atoms
0
Monkhorst
2 2 2
