Na4 Li8 Al12 Si12 O48
1.0
  12.2788500000000003    0.0000000000000000    0.0000000000000000
   0.0000000000000000   12.2788500000000003    0.0000000000000000
   0.0000000000000000    0.0000000000000000   11.7507880000000000
Na Li Al Si O
4 8 12 12 48
direct
   0.0000000000000000    0.3671910000000000    0.5007980000000000 Na
   0.0000000000000000    0.6328090000000000    0.5007980000000000 Na
   0.3671910000000000    0.0000000000000000    0.5007980000000000 Na
   0.6328090000000000    0.0000000000000000    0.5007980000000000 Na
   0.1926250000000000    0.1926250000000000    0.1824530000000000 Li
   0.1926250000000000    0.8073750000000000    0.1824530000000000 Li
   0.8073750000000000    0.1926250000000000    0.1824530000000000 Li
   0.8073750000000000    0.8073750000000000    0.1824530000000000 Li
   0.1915410000000000    0.1915410000000000    0.8172750000000000 Li
   0.1915410000000000    0.8084590000000000    0.8172750000000000 Li
   0.8084590000000000    0.1915410000000000    0.8172750000000000 Li
   0.8084590000000000    0.8084590000000000    0.8172750000000000 Li
   0.0000000000000000    0.3659400000000000    0.1840910000000000 Al
   0.0000000000000000    0.6340600000000000    0.1840910000000000 Al
   0.3659400000000000    0.0000000000000000    0.1840910000000000 Al
   0.6340600000000000    0.0000000000000000    0.1840910000000000 Al
   0.1793070000000000    0.0000000000000000    0.6515720000000000 Al
   0.0000000000000000    0.1793070000000000    0.6515720000000000 Al
   0.0000000000000000    0.8206930000000000    0.6515720000000000 Al
   0.8206930000000000    0.0000000000000000    0.6515720000000000 Al
   0.0000000000000000    0.6347450000000000    0.8223620000000000 Al
   0.6347450000000000    0.0000000000000000    0.8223620000000000 Al
   0.0000000000000000    0.3652550000000000    0.8223620000000000 Al
   0.3652550000000000    0.0000000000000000    0.8223620000000000 Al
   0.3663330000000000    0.1877810000000000    0.0016280000000000 Si
   0.6336670000000000    0.1877810000000000    0.0016280000000000 Si
   0.3663330000000000    0.8122190000000000    0.0016280000000000 Si
   0.8122190000000000    0.3663330000000000    0.0016280000000000 Si
   0.8122190000000000    0.6336670000000000    0.0016280000000000 Si
   0.1721620000000000    0.0000000000000000    0.3641560000000000 Si
   0.0000000000000000    0.8278380000000000    0.3641560000000000 Si
   0.8278380000000000    0.0000000000000000    0.3641560000000000 Si
   0.0000000000000000    0.1721620000000000    0.3641560000000000 Si
   0.1877810000000000    0.3663330000000000    0.0016280000000000 Si
   0.1877810000000000    0.6336670000000000    0.0016280000000000 Si
   0.6336670000000000    0.8122190000000000    0.0016280000000000 Si
   0.3106490000000000    0.3106490000000000    0.0046170000000000 O
   0.5000000000000000    0.1996000000000000    0.0052410000000000 O
   0.3106490000000000    0.6893510000000000    0.0046170000000000 O
   0.6893510000000000    0.3106490000000000    0.0046170000000000 O
   0.8004000000000000    0.5000000000000000    0.0052410000000000 O
   0.1235080000000000    0.3216790000000000    0.1169040000000000 O
   0.3216790000000000    0.1235080000000000    0.1169040000000000 O
   0.3216790000000000    0.8764920000000000    0.1169040000000000 O
   0.8764920000000000    0.3216790000000000    0.1169040000000000 O
   0.1235080000000000    0.6783210000000000    0.1169040000000000 O
   0.6783210000000000    0.1235080000000000    0.1169040000000000 O
   0.6783210000000000    0.8764920000000000    0.1169040000000000 O
   0.8764920000000000    0.6783210000000000    0.1169040000000000 O
   0.0000000000000000    0.5000000000000000    0.2184050000000000 O
   0.5000000000000000    0.0000000000000000    0.2184050000000000 O
   0.0000000000000000    0.2949320000000000    0.3154960000000000 O
   0.2949320000000000    0.0000000000000000    0.3154960000000000 O
   0.7050680000000000    0.0000000000000000    0.3154960000000000 O
   0.0000000000000000    0.7050680000000000    0.3154960000000000 O
   0.1093460000000000    0.1093460000000000    0.3105550000000000 O
   0.1093460000000000    0.8906539999999999    0.3105550000000000 O
   0.8906539999999999    0.1093460000000000    0.3105550000000000 O
   0.8906539999999999    0.8906539999999999    0.3105550000000000 O
   0.0000000000000000    0.1772700000000000    0.4991900000000000 O
   0.1772700000000000    0.0000000000000000    0.4991900000000000 O
   0.8227300000000000    0.0000000000000000    0.4991900000000000 O
   0.0000000000000000    0.8227300000000000    0.4991900000000000 O
   0.1191910000000000    0.1191910000000000    0.7010220000000000 O
   0.1191910000000000    0.8808090000000000    0.7010220000000000 O
   0.8808090000000000    0.1191910000000000    0.7010220000000000 O
   0.8808090000000000    0.8808090000000000    0.7010220000000000 O
   0.0000000000000000    0.3192880000000000    0.6815160000000000 O
   0.3192880000000000    0.0000000000000000    0.6815160000000000 O
   0.6807120000000000    0.0000000000000000    0.6815160000000000 O
   0.0000000000000000    0.6807120000000000    0.6815160000000000 O
   0.5000000000000000    0.0000000000000000    0.8435040000000000 O
   0.0000000000000000    0.5000000000000000    0.8435040000000000 O
   0.1238210000000000    0.3166570000000000    0.8908180000000000 O
   0.1238210000000000    0.6833420000000000    0.8908180000000000 O
   0.3166570000000000    0.1238210000000000    0.8908180000000000 O
   0.3166570000000000    0.8761790000000000    0.8908180000000000 O
   0.6833420000000000    0.1238210000000000    0.8908180000000000 O
   0.6833420000000000    0.8761790000000000    0.8908180000000000 O
   0.8761790000000000    0.3166570000000000    0.8908180000000000 O
   0.8761790000000000    0.6833420000000000    0.8908180000000000 O
   0.1996000000000000    0.5000000000000000    0.0052410000000000 O
   0.5000000000000000    0.8004000000000000    0.0052410000000000 O
   0.6893510000000000    0.6893510000000000    0.0046170000000000 O
