Sr5 Li25 La7 Bi8 O48
1.0
  10.9725070000000002    0.0136910000000000   -3.8059150000000002
  -5.4989189999999999    9.3831989999999994   -3.8798360000000001
   0.0615750000000000    0.0176680000000000   11.5924320000000005
Sr Li La Bi O
5 25 7 8 48
direct
   0.1261610000000000    0.3763110000000000    0.7420679999999999 Sr
   0.1228930000000000    0.2377500000000000    0.3721630000000000 Sr
   0.6062240000000000    0.8687110000000000    0.7676560000000000 Sr
   0.6163090000000000    0.2488040000000000    0.8698540000000000 Sr
   0.7481500000000000    0.1413770000000000    0.3540670000000000 Sr
   0.2709390000000000    0.6524960000000000    0.3660090000000000 Li
   0.2545870000000000    0.1031790000000000    0.8630050000000000 Li
   0.3785040000000000    0.6154700000000000    0.7684280000000000 Li
   0.3576980000000000    0.2485330000000000    0.6327320000000000 Li
   0.5526030000000000    0.7237620000000000    0.3709350000000000 Li
   0.5398960000000000    0.2850160000000000    0.5886420000000000 Li
   0.6836420000000000    0.7982990000000000    0.2584290000000000 Li
   0.7411020000000000    0.3782710000000000    0.5798640000000000 Li
   0.5893310000000000    0.5381480000000000    0.2859480000000000 Li
   0.7526659999999999    0.8662990000000000    0.1190690000000000 Li
   0.6496080000000000    0.3787320000000000    0.3007760000000000 Li
   0.9708890000000000    0.5897710000000000    0.7803540000000000 Li
   0.7232890000000000    0.8823290000000000    0.6122510000000000 Li
   0.2187300000000000    0.7509570000000000    0.8441530000000000 Li
   0.4641130000000000    0.2552860000000000    0.0659670000000000 Li
   0.1179510000000000    0.8666380000000000    0.2425330000000000 Li
   0.7996300000000000    0.2494470000000000    0.6820160000000000 Li
   0.8788770000000000    0.1252460000000000    0.7675880000000000 Li
   0.7550080000000000    0.9869250000000001    0.5020890000000000 Li
   0.2929780000000000    0.5912670000000000    0.5408680000000000 Li
   0.0532110000000000    0.0924930000000000    0.7919710000000000 Li
   0.7637820000000000    0.2833570000000000    0.1563320000000000 Li
   0.8873259999999999    0.2287250000000000    0.0013610000000000 Li
   0.0388720000000000    0.4423990000000000    0.2516590000000000 Li
   0.8258070000000000    0.0726030000000000    0.0989360000000000 Li
   0.2464070000000000    0.8766490000000000    0.6169850000000000 La
   0.3629310000000000    0.7412930000000000    0.1167110000000000 La
   0.2367970000000000    0.3630480000000000    0.1197320000000000 La
   0.3639240000000000    0.1080070000000000    0.2408970000000000 La
   0.7366070000000000    0.6210590000000000    0.8689280000000000 La
   0.8844230000000000    0.7478780000000000    0.6225550000000000 La
   0.8691610000000000    0.6240640000000000    0.2382100000000000 La
   0.0061110000000000    0.5027850000000000    0.5021010000000000 Bi
   0.9955530000000000    0.5030110000000000    0.9968430000000000 Bi
   0.9960860000000000    0.9808930000000000    0.9891950000000000 Bi
   0.4889060000000000    0.4892110000000000    0.4945420000000000 Bi
   0.4936770000000000    0.9916880000000000    0.4899040000000000 Bi
   0.4931440000000000    0.4931440000000000    0.9963800000000000 Bi
   0.5006460000000000    0.9929340000000000    0.9958740000000000 Bi
   0.0022550000000000    0.0055610000000000    0.4992280000000000 Bi
   0.0936210000000000    0.9691130000000000    0.6737770000000000 O
   0.0014420000000000    0.3096740000000000    0.9124350000000000 O
   0.1229340000000000    0.5981640000000000    0.9189889999999999 O
   0.0800400000000000    0.7068820000000000    0.6733410000000000 O
   0.0661920000000000    0.8615850000000000    0.4017940000000000 O
   0.1206010000000000    0.6212460000000000    0.4258750000000000 O
   0.1809680000000000    0.4802070000000000    0.5933990000000000 O
   0.3894200000000000    0.8048970000000000    0.7939079999999999 O
   0.3731080000000000    0.5768120000000000    0.9160090000000000 O
   0.3122810000000000    0.3079280000000000    0.9434720000000000 O
   0.3205140000000000    0.9111740000000000    0.2907470000000000 O
   0.0101610000000000    0.1830200000000000    0.1090980000000000 O
   0.1721520000000000    0.2014170000000000    0.5787200000000000 O
   0.1899720000000000    0.5659230000000000    0.1692490000000000 O
   0.4060280000000000    0.8282180000000000    0.5352020000000000 O
   0.2953100000000000    0.4796590000000000    0.3715150000000000 O
   0.3344850000000000    0.9060920000000000    0.0379070000000000 O
   0.1273980000000000    0.0136100000000000    0.1872870000000000 O
   0.4098970000000000    0.0796380000000000    0.8783730000000000 O
   0.5027180000000000    0.6143189999999999    0.6868460000000000 O
   0.5306500000000000    0.4089570000000000    0.8263150000000000 O
   0.3776100000000000    0.2826820000000000    0.4654380000000000 O
   0.5692310000000000    0.8876440000000000    0.3605950000000000 O
   0.1850580000000000    0.1116940000000000    0.9982360000000000 O
   0.7954360000000000    0.8788570000000000    0.9765530000000000 O
   0.4372000000000000    0.1133990000000000    0.6185630000000000 O
   0.6258089999999999    0.6810520000000000    0.5088770000000000 O
   0.4766050000000000    0.5962970000000000    0.1835850000000000 O
   0.4717720000000000    0.3706670000000000    0.2876070000000000 O
   0.6075280000000000    0.9219760000000000    0.1160590000000000 O
   0.8831320000000000    0.9677690000000000    0.7870110000000000 O
   0.6885390000000000    0.1014860000000000    0.9813920000000000 O
   0.6774090000000000    0.5016080000000001    0.6216610000000000 O
   0.6039679999999999    0.1791240000000000    0.4775300000000000 O
   0.8044880000000000    0.4185750000000000    0.8054350000000000 O
   0.8028480000000000    0.8269430000000000    0.4415720000000000 O
   0.9365560000000001    0.7635630000000000    0.8486100000000000 O
   0.6891920000000000    0.0504400000000000    0.6595470000000000 O
   0.7005240000000000    0.6794800000000000    0.0981330000000000 O
   0.6207240000000001    0.4301720000000000    0.1215880000000000 O
   0.5797570000000000    0.1871770000000000    0.1853110000000000 O
   0.8331660000000000    0.5413440000000000    0.4064610000000000 O
   0.9083360000000000    0.3970100000000000    0.5916790000000000 O
   0.9372800000000000    0.1279100000000000    0.6289510000000000 O
   0.9189840000000000    0.3107900000000000    0.3101130000000000 O
   0.8773879999999999    0.4058120000000000    0.0888350000000000 O
   0.9534580000000000    0.6682510000000000    0.0840530000000000 O
   0.8835100000000000    0.0138160000000000    0.3204410000000000 O
