pymatgen with grid density = 623 / number of atoms
0
Gamma
5 5 2
