Li1 Bi2 I2 O2
1.0
   4.1893580000000004    0.0000000000000000    0.0000000000000000
   0.0000000000000000    4.1893580000000004    0.0000000000000000
   0.0000000000000000    0.0000000000000000   10.1708459999999992
Li Bi I O
1 2 2 2
direct
   0.7500000000000000    0.7500000000000000    0.5798500000000000 Li
   0.7500000000000000    0.7500000000000000    0.9045960000000000 Bi
   0.2500000000000000    0.2500000000000000    0.1228770000000000 Bi
   0.2500000000000000    0.2500000000000000    0.6617790000000000 I
   0.7500000000000000    0.7500000000000000    0.3099280000000000 I
   0.7500000000000000    0.2500000000000000    0.0073600000000000 O
   0.2500000000000000    0.7500000000000000    0.0073600000000000 O
