Li8 H6 Cl2 O6
1.0
   7.5524899999999997    0.0000000000000000    0.0000000000000000
   0.0000000000000000    5.5116240000000003    0.0000000000000000
   0.0000000000000000    0.4843580000000000    6.3199120000000004
Li H Cl O
8 6 2 6
direct
   0.7500000000000000    0.9280980000000000    0.9177580000000000 Li
   0.2500000000000000    0.0719020000000000    0.0822420000000000 Li
   0.7500000000000000    0.6095110000000000    0.6683100000000000 Li
   0.2500000000000000    0.3904890000000000    0.3316900000000000 Li
   0.5154580000000000    0.3533150000000000    0.8568550000000000 Li
   0.0154580000000000    0.6466850000000000    0.1431450000000000 Li
   0.4845420000000000    0.6466850000000000    0.1431450000000000 Li
   0.9845420000000000    0.3533150000000000    0.8568550000000000 Li
   0.7500000000000000    0.1785630000000000    0.6189970000000000 H
   0.2500000000000000    0.8214370000000000    0.3810030000000000 H
   0.5358440000000000    0.1917250000000000    0.2283660000000000 H
   0.0358440000000000    0.8082750000000000    0.7716340000000000 H
   0.4641560000000000    0.8082750000000000    0.7716340000000000 H
   0.9641560000000000    0.1917250000000000    0.2283660000000000 H
   0.7500000000000000    0.8218470000000000    0.3175570000000000 Cl
   0.2500000000000000    0.1781530000000000    0.6824430000000000 Cl
   0.7500000000000000    0.2516580000000000    0.7540510000000000 O
   0.2500000000000000    0.7483420000000000    0.2459490000000000 O
   0.5548600000000000    0.7106320000000000    0.8470380000000000 O
   0.0548600000000000    0.2893680000000000    0.1529620000000000 O
   0.4451400000000000    0.2893680000000000    0.1529620000000000 O
   0.9451400000000000    0.7106320000000000    0.8470380000000000 O
