Li1 P4 Br12 O4
1.0
   6.6842839999999999   -0.2774250000000000   -0.0737550000000000
  -0.4462660000000000   10.1037180000000006   -0.1255530000000000
  -0.1268320000000000   -0.1264640000000000   10.7503039999999999
Li P Br O
1 4 12 4
direct
   0.0866220000000000    0.0507450000000000    0.0478120000000000 Li
   0.3901760000000000    0.3148480000000000    0.2449870000000000 P
   0.6140620000000000    0.6917500000000000    0.7454760000000000 P
   0.8999840000000000    0.1878430000000000    0.7447210000000000 P
   0.1104630000000000    0.8134240000000000    0.2451620000000000 P
   0.8063709999999999    0.6556930000000000    0.5868830000000000 Br
   0.8819110000000000    0.9907990000000000    0.2348510000000000 Br
   0.2992210000000000    0.8359270000000000    0.4311060000000000 Br
   0.7163250000000000    0.1528230000000000    0.9129810000000000 Br
   0.2006060000000000    0.3516960000000000    0.4035720000000000 Br
   0.8039110000000000    0.6625700000000000    0.9107370000000000 Br
   0.3832370000000000    0.5232920000000000    0.7421620000000000 Br
   0.7030710000000000    0.1272590000000000    0.5855100000000000 Br
   0.1153470000000000    0.0337610000000000    0.7605660000000000 Br
   0.1894990000000000    0.3351490000000000    0.0772800000000000 Br
   0.3055200000000000    0.8620230000000000    0.0481570000000000 Br
   0.6127460000000000    0.4854880000000000    0.2402680000000000 Br
   0.5317780000000000    0.8226350000000000    0.7440970000000000 O
   0.9983080000000000    0.3239670000000000    0.7408350000000000 O
   0.4722160000000000    0.1839040000000000    0.2429230000000000 O
   0.9932090000000000    0.6819020000000000    0.2350610000000000 O
