pymatgen with grid density = 1607 / number of atoms
0
Monkhorst
2 6 6
