Li1 Mg6 B1 O7
1.0
   8.4718843400000008   -0.0000000000000000    0.0000000000000000
  -0.0000000000000000    4.1823676200000000    0.0000000000000000
   0.0000000000000000    0.0000000000000000    4.1823676200000000
Li Mg B O
1 6 1 7
direct
   0.9965488500000000    0.0000000000000000   -0.0000000000000000 Li
   0.4988801200000000    0.0000000000000000    0.0000000000000000 Mg
   0.4908329400000000    0.5000000000000000    0.5000000000000000 Mg
   0.2246609000000000    0.0000000000000000    0.5000000000000000 Mg
   0.7649758100000000    0.0000000000000000    0.5000000000000000 Mg
   0.2246609000000000    0.5000000000000000    0.0000000000000000 Mg
   0.7649758100000000    0.5000000000000000    0.0000000000000000 Mg
   0.9774838700000000    0.5000000000000000    0.5000000000000000 B
   0.2552247100000000   -0.0000000000000000    0.0000000000000000 O
   0.7413558800000000    0.0000000000000000   -0.0000000000000000 O
   0.8065917200000000    0.5000000000000000    0.5000000000000000 O
   0.9969341700000000    0.0000000000000000    0.5000000000000000 O
   0.5049700800000000   -0.0000000000000000    0.5000000000000000 O
   0.9969341700000000    0.5000000000000000    0.0000000000000000 O
   0.5049700800000000    0.5000000000000000    0.0000000000000000 O
