pymatgen with grid density = 1216 / number of atoms
0
Gamma
4 3 3
