Sr4 Li2 Si2 O8 F2
1.0
   5.4664330000000003    0.0000000000000000    0.0000000000000000
   0.0000000000000000    6.6382110000000001    0.0000000000000000
   0.0000000000000000    2.6536640000000000    6.4746750000000004
Sr Li Si O F
4 2 2 8 2
direct
   0.2500000000000000    0.8412970000000000    0.3735130000000000 Sr
   0.7500000000000000    0.6351599999999999    0.1016210000000000 Sr
   0.7500000000000000    0.1587030000000000    0.6264870000000000 Sr
   0.2500000000000000    0.3648400000000000    0.8983790000000000 Sr
   0.2500000000000000    0.8518080000000000    0.8807630000000000 Li
   0.7500000000000000    0.1481920000000000    0.1192370000000000 Li
   0.7500000000000000    0.6547370000000000    0.6647170000000000 Si
   0.2500000000000000    0.3452630000000000    0.3352830000000000 Si
   0.5070550000000000    0.7764300000000000    0.7112820000000000 O
   0.2500000000000000    0.3371940000000000    0.5708820000000000 O
   0.7500000000000000    0.4042210000000000    0.8416169999999999 O
   0.7500000000000000    0.6628060000000000    0.4291180000000000 O
   0.2500000000000000    0.5957789999999999    0.1583830000000000 O
   0.0070550000000000    0.2235700000000000    0.2887180000000000 O
   0.9929450000000000    0.7764300000000000    0.7112820000000000 O
   0.4929450000000000    0.2235700000000000    0.2887180000000000 O
   0.0000000000000000    0.0000000000000000    0.0000000000000000 F
   0.5000000000000000    0.0000000000000000    0.0000000000000000 F
