ALGO = Fast
EDIFF = 0.0024000000000000002
ENCUT = 520
IBRION = 2
ISIF = 3
ISMEAR = -5
ISPIN = 2
LASPH = True
LMAXMIX = 6
LORBIT = 11
LREAL = Auto
LWAVE = False
MAGMOM = 12*0.0 4*6.938 8*0.001 1*-0.001 1*0.001 4*-0.001 1*0.001 1*0.0 2*0.001 2*-0.001 1*0.0 1*-0.001 2*0.0 1*-0.001 1*0.0 1*-0.001 2*0.0 1*-0.001 1*0.0 1*-0.001
NELM = 100
NSW = 99
PREC = Accurate
SIGMA = 0.05
