pymatgen with grid density = 1466 / number of atoms
0
Monkhorst
4 2 2
