Li12 Gd4 B8 O24
1.0
   6.5002620000000002    0.0000000000000000    0.0000000000000000
   0.0000000000000000    8.8070310000000003    0.0000000000000000
   0.0000000000000000    4.6052799999999996    9.0767080000000000
Li Gd B O
12 4 8 24
direct
   0.5617690000000000    0.2955230000000000    0.6661980000000000 Li
   0.2561740000000000    0.3953010000000000    0.4782600000000000 Li
   0.2438260000000000    0.3953010000000000    0.9782600000000000 Li
   0.7561740000000000    0.6046990000000000    0.0217400000000000 Li
   0.7808040000000001    0.1639360000000000    0.5406830000000000 Li
   0.0617690000000000    0.7044770000000000    0.8338020000000000 Li
   0.4382310000000000    0.7044770000000000    0.3338020000000000 Li
   0.2191960000000000    0.8360640000000000    0.4593170000000000 Li
   0.7438260000000000    0.6046990000000000    0.5217400000000000 Li
   0.2808040000000000    0.8360640000000000    0.9593170000000000 Li
   0.7191959999999999    0.1639360000000000    0.0406830000000000 Li
   0.9382310000000000    0.2955230000000000    0.1661980000000000 Li
   0.9723380000000000    0.8173960000000000    0.1999200000000000 Gd
   0.4723380000000000    0.1826040000000000    0.3000800000000000 Gd
   0.0276620000000000    0.1826040000000000    0.8000800000000000 Gd
   0.5276620000000000    0.8173960000000000    0.6999200000000000 Gd
   0.6628570000000000    0.4595040000000000    0.3226600000000000 B
   0.6722450000000000    0.9477510000000000    0.8924220000000000 B
   0.3371430000000000    0.5404960000000000    0.6773400000000001 B
   0.8371430000000000    0.4595040000000000    0.8226599999999999 B
   0.1722450000000000    0.0522490000000000    0.6075780000000000 B
   0.3277550000000000    0.0522490000000000    0.1075780000000000 B
   0.1628570000000000    0.5404960000000000    0.1773400000000000 B
   0.8277550000000000    0.9477510000000000    0.3924220000000000 B
   0.7100080000000000    0.6180130000000000    0.3112690000000000 O
   0.4395730000000000    0.6629870000000000    0.5525730000000000 O
   0.7858740000000000    0.9893000000000000    0.9863750000000000 O
   0.2899920000000000    0.3819870000000000    0.6887310000000000 O
   0.8196660000000000    0.0590800000000000    0.2422520000000000 O
   0.2100080000000000    0.3819870000000000    0.1887310000000000 O
   0.5604270000000000    0.3370130000000000    0.4474270000000000 O
   0.7084520000000000    0.4100770000000000    0.2134600000000000 O
   0.9395730000000000    0.3370130000000000    0.9474270000000000 O
   0.0604270000000000    0.6629870000000000    0.0525730000000000 O
   0.2858740000000000    0.0107000000000000    0.5136250000000000 O
   0.2141260000000000    0.0107000000000000    0.0136250000000000 O
   0.4351990000000000    0.2025890000000000    0.0611180000000000 O
   0.7899920000000000    0.6180130000000000    0.8112690000000000 O
   0.7915480000000000    0.4100770000000000    0.7134600000000000 O
   0.9351990000000000    0.7974110000000000    0.4388820000000000 O
   0.3196660000000000    0.9409200000000000    0.2577480000000000 O
   0.5648010000000000    0.7974110000000000    0.9388820000000000 O
   0.1803340000000000    0.9409200000000000    0.7577480000000000 O
   0.2915480000000000    0.5899230000000000    0.7865400000000000 O
   0.2084520000000000    0.5899230000000000    0.2865400000000000 O
   0.7141260000000000    0.9893000000000000    0.4863750000000000 O
   0.0648010000000000    0.2025890000000000    0.5611180000000000 O
   0.6803340000000000    0.0590800000000000    0.7422520000000000 O
