pymatgen with grid density = 1100 / number of atoms
0
Gamma
4 4 2
