Li2 Al4 Br2 O12
1.0
   5.6531989999999999    0.0000000000000000    0.0000000000000000
  -2.8266000000000000    4.8958139999999997    0.0000000000000000
   0.0000000000000000    0.0000000000000000   10.4265989999999995
Li Al Br O
2 4 2 12
direct
   0.0000000000000000    0.0000000000000000    0.0000000000000000 Li
   0.0000000000000000    0.0000000000000000    0.5000000000000000 Li
   0.6666670000000000    0.3333330000000000    0.0000000000000000 Al
   0.3333330000000000    0.6666670000000000    0.0000000000000000 Al
   0.3333330000000000    0.6666670000000000    0.5000000000000000 Al
   0.6666670000000000    0.3333330000000000    0.5000000000000000 Al
   0.0000000000000000    0.0000000000000000    0.7500000000000000 Br
   0.0000000000000000    0.0000000000000000    0.2500000000000000 Br
   0.4159610000000000    0.0000000000000000    0.4307070000000000 O
   0.0000000000000000    0.4159610000000000    0.4307070000000000 O
   0.5840390000000000    0.5840390000000000    0.4307070000000000 O
   0.5840390000000000    0.0000000000000000    0.5692930000000000 O
   0.0000000000000000    0.5840390000000000    0.5692930000000000 O
   0.4159610000000000    0.4159610000000000    0.5692930000000000 O
   0.5840390000000000    0.0000000000000000    0.9307070000000000 O
   0.0000000000000000    0.5840390000000000    0.9307070000000000 O
   0.4159610000000000    0.4159610000000000    0.9307070000000000 O
   0.4159610000000000    0.0000000000000000    0.0692930000000000 O
   0.0000000000000000    0.4159610000000000    0.0692930000000000 O
   0.5840390000000000    0.5840390000000000    0.0692930000000000 O
