ALGO = Fast
EDIFF = 0.0031000000000000003
ENCUT = 520
IBRION = 2
ISIF = 3
ISMEAR = -5
ISPIN = 2
LASPH = True
LMAXMIX = 4
LORBIT = 11
LREAL = Auto
LWAVE = False
MAGMOM = 2*-0.0 4*0.002 8*-0.009 4*0.0 4*-0.001 8*0.108 1*0.027 1*0.026 1*0.027 1*0.026 1*0.027 1*0.026 1*0.027 1*0.026 4*0.068 4*0.038 8*0.056 2*0.551 1*0.552 1*0.551 4*0.621
NELM = 100
NSW = 99
PREC = Accurate
SIGMA = 0.05
