Rb8 Li12 B4 P16 O56
1.0
   7.1864999999999997  -12.1342260000000000    0.0000000000000000
   7.1864999999999997   12.1342260000000000    0.0000000000000000
   0.0000000000000000    0.0000000000000000    7.1790339999999997
Rb Li B P O
8 12 4 16 56
direct
   0.3859010000000000    0.3859010000000000    0.7991840000000000 Rb
   0.6140990000000000    0.6140990000000000    0.2008160000000000 Rb
   0.1140990000000000    0.1140990000000000    0.2991840000000000 Rb
   0.8859010000000000    0.8859010000000000    0.7008160000000000 Rb
   0.4040090000000000    0.9040090000000000    0.7500000000000000 Rb
   0.0959910000000000    0.5959910000000000    0.2500000000000000 Rb
   0.5959910000000000    0.0959910000000000    0.2500000000000000 Rb
   0.9040090000000000    0.4040090000000000    0.7500000000000000 Rb
   0.8814230000000000    0.1185770000000000    0.5000000000000000 Li
   0.3814230000000000    0.6185770000000000    0.0000000000000000 Li
   0.1185770000000000    0.8814230000000000    0.5000000000000000 Li
   0.6185770000000000    0.3814230000000000    0.0000000000000000 Li
   0.6024210000000000    0.8681940000000000    0.9763740000000000 Li
   0.1318060000000000    0.3975790000000000    0.0236260000000000 Li
   0.6318060000000000    0.8975790000000000    0.4763740000000000 Li
   0.1024210000000000    0.3681940000000000    0.5236260000000000 Li
   0.3975790000000000    0.1318060000000000    0.0236260000000000 Li
   0.8681940000000000    0.6024210000000000    0.9763740000000000 Li
   0.3681940000000000    0.1024210000000000    0.5236260000000000 Li
   0.8975790000000000    0.6318060000000000    0.4763740000000000 Li
   0.8800140000000000    0.1199860000000000    0.0000000000000000 B
   0.3800140000000000    0.6199860000000000    0.5000000000000000 B
   0.1199860000000000    0.8800140000000000    0.0000000000000000 B
   0.6199860000000000    0.3800140000000000    0.5000000000000000 B
   0.7140110000000000    0.0918590000000000    0.7600350000000000 P
   0.9081410000000000    0.2859890000000000    0.2399650000000000 P
   0.4081410000000000    0.7859890000000000    0.2600350000000000 P
   0.2140110000000000    0.5918590000000000    0.7399650000000000 P
   0.2859890000000000    0.9081410000000000    0.2399650000000000 P
   0.0918590000000000    0.7140110000000000    0.7600350000000000 P
   0.5918590000000000    0.2140110000000000    0.7399650000000000 P
   0.7859890000000000    0.4081410000000000    0.2600350000000000 P
   0.0719570000000000    0.1971300000000000    0.8022370000000000 P
   0.8028700000000000    0.9280430000000000    0.1977630000000000 P
   0.3028700000000000    0.4280430000000000    0.3022370000000000 P
   0.5719570000000000    0.6971300000000000    0.6977630000000000 P
   0.9280430000000000    0.8028700000000000    0.1977630000000000 P
   0.1971300000000000    0.0719570000000000    0.8022370000000000 P
   0.6971300000000000    0.5719570000000000    0.6977630000000000 P
   0.4280430000000000    0.3028700000000000    0.3022370000000000 P
   0.6316020000000000    0.0141480000000000    0.8954050000000000 O
   0.9858520000000000    0.3683980000000000    0.1045950000000000 O
   0.4858520000000000    0.8683980000000000    0.3954050000000000 O
   0.1316020000000000    0.5141480000000000    0.6045950000000000 O
   0.3683980000000000    0.9858520000000000    0.1045950000000000 O
   0.0141480000000000    0.6316020000000000    0.8954050000000000 O
   0.5141480000000000    0.1316020000000000    0.6045950000000000 O
   0.8683980000000000    0.4858520000000000    0.3954050000000000 O
   0.8352710000000000    0.1444450000000000    0.8316750000000001 O
   0.8555550000000000    0.1647290000000000    0.1683250000000000 O
   0.3555550000000000    0.6647290000000000    0.3316750000000000 O
   0.3352710000000000    0.6444450000000000    0.6683249999999999 O
   0.1647290000000000    0.8555550000000000    0.1683250000000000 O
   0.1444450000000000    0.8352710000000000    0.8316750000000001 O
   0.6444450000000000    0.3352710000000000    0.6683249999999999 O
   0.6647290000000000    0.3555550000000000    0.3316750000000000 O
   0.7137590000000000    0.0535040000000000    0.5624590000000000 O
   0.9464960000000000    0.2862410000000000    0.4375410000000000 O
   0.4464960000000000    0.7862410000000000    0.0624590000000000 O
   0.2137590000000000    0.5535040000000000    0.9375410000000000 O
   0.2862410000000000    0.9464960000000000    0.4375410000000000 O
   0.0535040000000000    0.7137590000000000    0.5624590000000000 O
   0.5535040000000000    0.2137590000000000    0.9375410000000000 O
   0.7862410000000000    0.4464960000000000    0.0624590000000000 O
   0.7011039999999999    0.2011040000000000    0.7500000000000000 O
   0.7988960000000001    0.2988960000000000    0.2500000000000000 O
   0.2988960000000000    0.7988960000000001    0.2500000000000000 O
   0.2011040000000000    0.7011039999999999    0.7500000000000000 O
   0.1632250000000000    0.1632250000000000    0.8675510000000000 O
   0.8367750000000000    0.8367750000000000    0.1324490000000000 O
   0.3367750000000000    0.3367750000000000    0.3675510000000000 O
   0.6632250000000000    0.6632250000000000    0.6324490000000000 O
   0.1338080000000000    0.3193570000000000    0.7814930000000000 O
   0.6806430000000000    0.8661920000000000    0.2185070000000000 O
   0.1806430000000000    0.3661920000000000    0.2814930000000000 O
   0.6338080000000000    0.8193570000000000    0.7185070000000000 O
   0.8661920000000000    0.6806430000000000    0.2185070000000000 O
   0.3193570000000000    0.1338080000000000    0.7814930000000000 O
   0.8193570000000000    0.6338080000000000    0.7185070000000000 O
   0.3661920000000000    0.1806430000000000    0.2814930000000000 O
   0.0114490000000000    0.1329390000000000    0.6347780000000000 O
   0.8670610000000000    0.9885510000000000    0.3652220000000000 O
   0.3670610000000000    0.4885510000000000    0.1347780000000000 O
   0.5114490000000000    0.6329390000000000    0.8652220000000000 O
   0.9885510000000000    0.8670610000000000    0.3652220000000000 O
   0.1329390000000000    0.0114490000000000    0.6347780000000000 O
   0.6329390000000000    0.5114490000000000    0.8652220000000000 O
   0.4885510000000000    0.3670610000000000    0.1347780000000000 O
   0.9991170000000000    0.1674190000000000    0.9831460000000000 O
   0.8325810000000000    0.0008830000000000    0.0168540000000000 O
   0.3325810000000000    0.5008830000000000    0.4831460000000000 O
   0.4991170000000000    0.6674190000000000    0.5168540000000000 O
   0.0008830000000000    0.8325810000000000    0.0168540000000000 O
   0.1674190000000000    0.9991170000000000    0.9831460000000000 O
   0.6674190000000000    0.4991170000000000    0.5168540000000000 O
   0.5008830000000000    0.3325810000000000    0.4831460000000000 O
