pymatgen with grid density = 1517 / number of atoms
0
Gamma
4 3 3
