pymatgen with grid density = 1531 / number of atoms
0
Gamma
2 2 5
