Li1 La1 Mg14 O16
1.0
   8.7065379600000004    0.0000000000000000    0.0000000000000000
   0.0000000000000000    8.7065379600000004   -0.0000000000000000
   0.0000000000000000    0.0000000000000000    4.3767513700000000
Li La Mg O
1 1 14 16
direct
   0.0000000000000000    0.0000000000000000    0.0000000000000000 Li
   0.5000000000000000    0.5000000000000000    0.0000000000000000 La
   0.0000000000000000    0.5000000000000000    0.0000000000000000 Mg
   0.5000000000000000    0.0000000000000000    0.0000000000000000 Mg
   0.0000000000000000    0.2405720600000000    0.5000000000000000 Mg
   0.0000000000000000    0.7594279400000000    0.5000000000000000 Mg
   0.5000000000000000    0.2302182300000000    0.5000000000000000 Mg
   0.5000000000000000    0.7697817700000000    0.5000000000000000 Mg
   0.2405720600000000    0.0000000000000000    0.5000000000000000 Mg
   0.2302182300000000    0.5000000000000000    0.5000000000000000 Mg
   0.7594279400000000   -0.0000000000000000    0.5000000000000000 Mg
   0.7697817700000000    0.5000000000000000    0.5000000000000000 Mg
   0.2354143300000000    0.2354143300000000    0.0000000000000000 Mg
   0.2354143300000000    0.7645856700000000   -0.0000000000000000 Mg
   0.7645856700000000    0.2354143300000000    0.0000000000000000 Mg
   0.7645856700000000    0.7645856700000000   -0.0000000000000000 Mg
   0.2549170000000000    0.0000000000000000   -0.0000000000000000 O
   0.2314637600000000    0.5000000000000000    0.0000000000000000 O
   0.7450830000000001   -0.0000000000000000    0.0000000000000000 O
   0.7685362400000000    0.5000000000000000    0.0000000000000000 O
   0.2516686700000000    0.2516686700000000    0.5000000000000000 O
   0.2516686700000000    0.7483313300000000    0.5000000000000000 O
   0.7483313300000000    0.2516686700000000    0.5000000000000000 O
   0.7483313300000000    0.7483313300000000    0.5000000000000000 O
   0.0000000000000000    0.0000000000000000    0.5000000000000000 O
   0.0000000000000000    0.5000000000000000    0.5000000000000000 O
   0.5000000000000000    0.0000000000000000    0.5000000000000000 O
   0.5000000000000000    0.5000000000000000    0.5000000000000000 O
   0.0000000000000000    0.2549170000000000   -0.0000000000000000 O
   0.0000000000000000    0.7450830000000001    0.0000000000000000 O
   0.5000000000000000    0.2314637600000000    0.0000000000000000 O
   0.5000000000000000    0.7685362400000000   -0.0000000000000000 O
