ALGO = Fast
EDIFF = 0.0016
ENCUT = 520
IBRION = 2
ISIF = 3
ISMEAR = -5
ISPIN = 2
LASPH = True
LMAXMIX = 4
LORBIT = 11
LREAL = Auto
LWAVE = False
MAGMOM = 4*-0.006 8*-0.001 4*0.085 4*0.026 8*0.021 4*1.439
NELM = 100
NSW = 99
PREC = Accurate
SIGMA = 0.05
