Li4 Al4 Ge4 O20
1.0
   0.0000000000000000    0.0000000000000000   -5.1685639999999999
   0.0000000000000000   -8.3512579999999996    0.0000000000000000
 -10.8065979999999993    0.0000000000000000    0.0000000000000000
Li Al Ge O
4 4 4 20
direct
   0.2470050000000000    0.6813410000000000    0.1895990000000000 Li
   0.7470050000000000    0.3186590000000000    0.8104010000000000 Li
   0.7470050000000000    0.1813410000000000    0.3104010000000000 Li
   0.2470050000000000    0.8186590000000000    0.6895990000000000 Li
   0.7514900000000000    0.5779250000000000    0.3373440000000000 Al
   0.2514900000000000    0.4220750000000000    0.6626560000000000 Al
   0.2514900000000000    0.0779250000000000    0.1626560000000000 Al
   0.7514900000000000    0.9220750000000000    0.8373440000000000 Al
   0.7510540000000000    0.8678610000000000    0.1377650000000000 Ge
   0.2510540000000000    0.1321390000000000    0.8622350000000000 Ge
   0.2510540000000000    0.3678610000000000    0.3622350000000000 Ge
   0.7510540000000000    0.6321390000000000    0.6377650000000000 Ge
   0.8137660000000000    0.6680760000000000    0.4811720000000000 O
   0.3137660000000000    0.3319240000000000    0.5188280000000000 O
   0.3137660000000000    0.1680760000000000    0.0188280000000000 O
   0.8137660000000000    0.8319240000000000    0.9811720000000000 O
   0.8753170000000000    0.7022440000000000    0.2203430000000000 O
   0.3753170000000000    0.2977560000000000    0.7796570000000000 O
   0.3753170000000000    0.2022440000000000    0.2796570000000000 O
   0.8753170000000000    0.7977560000000000    0.7203430000000000 O
   0.4177270000000000    0.5424920000000000    0.3096280000000000 O
   0.9177270000000000    0.4575080000000000    0.6903720000000000 O
   0.9177270000000000    0.0424920000000000    0.1903720000000000 O
   0.4177270000000000    0.9575080000000000    0.8096280000000000 O
   0.9185630000000000    0.3908800000000000    0.3289580000000000 O
   0.4185630000000000    0.6091200000000000    0.6710420000000000 O
   0.4185630000000000    0.8908800000000000    0.1710420000000000 O
   0.9185630000000000    0.1091200000000000    0.8289580000000000 O
   0.2436770000000000    0.5914210000000000    0.0110230000000000 O
   0.7436770000000000    0.4085790000000000    0.9889770000000000 O
   0.7436770000000000    0.0914210000000000    0.4889770000000000 O
   0.2436770000000000    0.9085790000000000    0.5110230000000000 O
