pymatgen with grid density = 757 / number of atoms
0
Gamma
3 3 3
