Li2 Cd8 Ge10 O30
1.0
   7.1955640000000001    0.0000000000000000    0.0000000000000000
  -0.6924830000000000    8.0044730000000008    0.0000000000000000
  -0.6398840000000000   -3.5700479999999999   11.8949110000000005
Li Cd Ge O
2 8 10 30
direct
   0.3411150000000000    0.1633830000000000    0.6126350000000000 Li
   0.6588850000000001    0.8366170000000001    0.3873650000000000 Li
   0.0579500000000000    0.0974020000000000    0.1507760000000000 Cd
   0.9420500000000001    0.9025980000000000    0.8492240000000000 Cd
   0.1337620000000000    0.3184570000000000    0.4437230000000000 Cd
   0.8662380000000000    0.6815430000000000    0.5562770000000000 Cd
   0.1838920000000000    0.5346190000000000    0.7339420000000000 Cd
   0.8161079999999999    0.4653810000000000    0.2660580000000000 Cd
   0.2741460000000000    0.7434140000000000    0.0182410000000000 Cd
   0.7258540000000000    0.2565860000000000    0.9817590000000000 Cd
   0.4284610000000000    0.9728570000000000    0.8257380000000000 Ge
   0.5715390000000000    0.0271430000000000    0.1742620000000000 Ge
   0.3553080000000000    0.7750359999999999    0.5542500000000000 Ge
   0.6446920000000000    0.2249640000000000    0.4457500000000000 Ge
   0.3023280000000000    0.5142980000000000    0.2299860000000000 Ge
   0.6976720000000000    0.4857020000000000    0.7700140000000000 Ge
   0.2208370000000000    0.3183660000000000    0.9589259999999999 Ge
   0.7791630000000000    0.6816340000000000    0.0410740000000000 Ge
   0.1093040000000000    0.8568170000000001    0.3531850000000000 Ge
   0.8906960000000000    0.1431830000000000    0.6468150000000000 Ge
   0.4228810000000000    0.9537380000000000    0.6780800000000000 O
   0.5771190000000000    0.0462620000000000    0.3219200000000000 O
   0.0348410000000000    0.1752150000000000    0.9765120000000000 O
   0.9651590000000000    0.8247850000000000    0.0234880000000000 O
   0.1250360000000000    0.3828900000000000    0.2690610000000000 O
   0.8749640000000000    0.6171100000000000    0.7309390000000000 O
   0.2711490000000000    0.9136660000000000    0.4757760000000000 O
   0.7288510000000000    0.0863340000000000    0.5242240000000000 O
   0.1802100000000000    0.6149750000000000    0.5633820000000000 O
   0.8197900000000000    0.3850250000000000    0.4366180000000000 O
   0.2529290000000000    0.8222780000000000    0.8471750000000000 O
   0.7470710000000000    0.1777220000000000    0.1528250000000000 O
   0.3578890000000000    0.4349950000000000    0.0877780000000000 O
   0.6421110000000000    0.5650050000000000    0.9122220000000000 O
   0.6060010000000000    0.7983600000000000    0.1211640000000000 O
   0.3939990000000000    0.2016400000000000    0.8788360000000000 O
   0.0629970000000000    0.0472740000000000    0.3221390000000000 O
   0.9370030000000000    0.9527260000000000    0.6778610000000000 O
   0.2259100000000000    0.7244360000000000    0.2384130000000000 O
   0.7740899999999999    0.2755640000000000    0.7615870000000000 O
   0.4353970000000000    0.2935730000000000    0.5047509999999999 O
   0.5646030000000000    0.7064270000000000    0.4952490000000000 O
   0.0934100000000000    0.2600820000000000    0.6200560000000001 O
   0.9065900000000000    0.7399180000000000    0.3799440000000000 O
   0.3520060000000000    0.0264150000000000    0.1087310000000000 O
   0.6479940000000000    0.9735850000000000    0.8912690000000000 O
   0.1610730000000000    0.4864810000000000    0.9043530000000000 O
   0.8389270000000000    0.5135189999999999    0.0956470000000000 O
   0.5193870000000000    0.5324790000000000    0.3082690000000000 O
   0.4806130000000000    0.4675210000000000    0.6917310000000000 O
