K4 Li4 Zn4 P8 O28
1.0
   0.0000000000000000    5.1495600000000001    0.0000000000000000
  -0.0019420000000000    0.0000000000000000   10.4051179999999999
  12.5152979999999996    0.0000000000000000   -0.1947100000000000
K Li Zn P O
4 4 4 8 28
direct
   0.9970680000000000    0.7566460000000000    0.0054950000000000 K
   0.0029320000000000    0.2566460000000000    0.0054950000000000 K
   0.5015720000000000    0.9765460000000000    0.5059860000000000 K
   0.4984280000000000    0.4765460000000000    0.5059860000000000 K
   0.9743340000000000    0.9688380000000000    0.2493430000000000 Li
   0.0256660000000000    0.4688380000000000    0.2493430000000000 Li
   0.9503870000000000    0.9631610000000000    0.7497830000000000 Li
   0.0496130000000000    0.4631610000000000    0.7497830000000000 Li
   0.4568090000000000    0.7687200000000000    0.7497930000000000 Zn
   0.5431910000000000    0.2687200000000000    0.7497930000000000 Zn
   0.4712430000000000    0.7610770000000000    0.2491190000000000 Zn
   0.5287570000000000    0.2610770000000000    0.2491190000000000 Zn
   0.5064270000000000    0.5104570000000000    0.1148120000000000 P
   0.4935730000000000    0.0104570000000000    0.1148120000000000 P
   0.9888550000000000    0.7162790000000000    0.3841320000000000 P
   0.0111450000000000    0.2162790000000000    0.3841320000000000 P
   0.5614710000000001    0.5242470000000000    0.8795710000000000 P
   0.4385290000000000    0.0242470000000000    0.8795710000000000 P
   0.9554510000000001    0.7067340000000000    0.6186190000000000 P
   0.0445490000000000    0.2067340000000000    0.6186190000000000 P
   0.0569310000000000    0.7666680000000000    0.5060290000000000 O
   0.9430690000000000    0.2666680000000000    0.5060290000000000 O
   0.1345280000000000    0.8141510000000000    0.3139370000000000 O
   0.8654720000000000    0.3141510000000000    0.3139370000000000 O
   0.4184840000000000    0.4437120000000000    0.7925960000000000 O
   0.5815160000000000    0.9437120000000000    0.7925960000000000 O
   0.3534070000000000    0.4075820000000000    0.1776170000000000 O
   0.6465930000000000    0.9075820000000000    0.1776170000000000 O
   0.0252490000000000    0.5659170000000000    0.6221650000000000 O
   0.9747510000000000    0.0659170000000000    0.6221650000000000 O
   0.6605350000000000    0.7337530000000000    0.6207390000000000 O
   0.3394650000000000    0.2337530000000000    0.6207390000000000 O
   0.0868750000000000    0.5802670000000000    0.3708410000000000 O
   0.9131250000000000    0.0802670000000000    0.3708410000000000 O
   0.0925690000000000    0.7911220000000000    0.7046050000000000 O
   0.9074310000000000    0.2911220000000000    0.7046050000000000 O
   0.4468530000000000    0.4669140000000000    0.9910180000000000 O
   0.5531470000000001    0.9669140000000001    0.9910180000000000 O
   0.4701690000000000    0.6656790000000000    0.8784970000000000 O
   0.5298310000000001    0.1656790000000000    0.8784970000000000 O
   0.3787350000000000    0.6435210000000000    0.1307030000000000 O
   0.6212650000000000    0.1435210000000000    0.1307030000000000 O
   0.6923890000000000    0.7324220000000000    0.3737710000000000 O
   0.3076110000000000    0.2324220000000000    0.3737710000000000 O
   0.7952840000000000    0.5094180000000000    0.1334270000000000 O
   0.2047160000000000    0.0094180000000000    0.1334270000000000 O
   0.8524320000000000    0.5071680000000000    0.8774010000000000 O
   0.1475680000000000    0.0071680000000000    0.8774010000000000 O
