pymatgen with grid density = 800 / number of atoms
0
Monkhorst
2 2 2
