Li2 B12 S8 Cl12 O16
1.0
  10.2384050000000002    0.0000000000000000    0.0000000000000000
  -2.0692830000000000   10.3759280000000000    0.0000000000000000
  -0.9141410000000000   -4.9998259999999997    9.3435690000000005
Li B S Cl O
2 12 8 12 16
direct
   0.8390580000000000    0.9117010000000000    0.2420330000000000 Li
   0.1609420000000000    0.0882990000000000    0.7579669999999999 Li
   0.5956640000000000    0.6497590000000000    0.6505270000000000 B
   0.4043360000000000    0.3502410000000000    0.3494730000000000 B
   0.6517039999999999    0.5867320000000000    0.4831790000000000 B
   0.3482960000000000    0.4132680000000000    0.5168210000000000 B
   0.5098290000000000    0.6650820000000000    0.5055900000000000 B
   0.4901710000000000    0.3349180000000000    0.4944100000000000 B
   0.4138750000000000    0.6080179999999999    0.6132390000000000 B
   0.5861250000000000    0.3919820000000000    0.3867610000000000 B
   0.4957470000000000    0.4945000000000000    0.6578070000000000 B
   0.5042530000000000    0.5054999999999999    0.3421930000000000 B
   0.6430160000000000    0.4803340000000000    0.5772870000000000 B
   0.3569840000000000    0.5196660000000000    0.4227130000000000 B
   0.8290999999999999    0.0990440000000000    0.6064900000000000 S
   0.1709000000000000    0.9009560000000000    0.3935100000000000 S
   0.9687420000000000    0.1934400000000000    0.1723380000000000 S
   0.0312580000000000    0.8065600000000001    0.8276620000000000 S
   0.4935060000000000    0.8847830000000000    0.1179990000000000 S
   0.5064940000000000    0.1152170000000000    0.8820010000000000 S
   0.8182210000000000    0.5473680000000000    0.0491170000000000 S
   0.1817790000000000    0.4526320000000000    0.9508830000000000 S
   0.6945980000000000    0.8099360000000000    0.8090079999999999 Cl
   0.3054020000000000    0.1900640000000000    0.1909920000000000 Cl
   0.8103910000000000    0.6794100000000000    0.4661320000000000 Cl
   0.1896090000000000    0.3205900000000000    0.5338680000000000 Cl
   0.5189920000000000    0.8398700000000000    0.5135520000000000 Cl
   0.4810080000000000    0.1601300000000000    0.4864480000000000 Cl
   0.3262000000000000    0.7244840000000000    0.7359380000000000 Cl
   0.6738000000000000    0.2755160000000000    0.2640620000000000 Cl
   0.4900480000000000    0.4909980000000000    0.8244500000000000 Cl
   0.5099520000000000    0.5090020000000000    0.1755500000000000 Cl
   0.7925759999999999    0.4577950000000000    0.6574880000000000 Cl
   0.2074240000000000    0.5422050000000000    0.3425120000000000 Cl
   0.8288460000000000    0.0441440000000000    0.4545650000000000 O
   0.1711540000000000    0.9558560000000000    0.5454350000000000 O
   0.9468430000000000    0.0988800000000000    0.6923140000000000 O
   0.0531570000000000    0.9011200000000000    0.3076860000000000 O
   0.9089120000000001    0.0551080000000000    0.1698560000000000 O
   0.0910880000000000    0.9448920000000000    0.8301440000000000 O
   0.9520970000000000    0.1927820000000000    0.0355530000000000 O
   0.0479030000000000    0.8072180000000000    0.9644470000000001 O
   0.6229479999999999    0.8836920000000000    0.1851040000000000 O
   0.3770520000000000    0.1163080000000000    0.8148960000000000 O
   0.3718580000000000    0.8054280000000000    0.1375020000000000 O
   0.6281420000000000    0.1945720000000000    0.8624980000000000 O
   0.8035550000000000    0.6947190000000000    0.0971870000000000 O
   0.1964450000000000    0.3052810000000000    0.9028130000000000 O
   0.9258880000000000    0.5300480000000000    0.1328470000000000 O
   0.0741120000000000    0.4699520000000000    0.8671530000000000 O
