Li1 Ce1 Mg30 O32
1.0
   8.6071369999999998    0.0000000000000000    0.0000000000000000
   0.0000000000000000    8.6071369999999998    0.0000000000000000
   0.0000000000000000    0.0000000000000000    8.6049779999999991
Li Ce Mg O
1 1 30 32
direct
   0.0000000000000000    0.0000000000000000    0.0000000000000000 Li
   0.5000000000000000    0.5000000000000000    0.0000000000000000 Ce
   0.5000000000000000    0.0000000000000000    0.0000000000000000 Mg
   0.0000000000000000    0.5000000000000000    0.0000000000000000 Mg
   0.0000000000000000    0.0000000000000000    0.5000000000000000 Mg
   0.5000000000000000    0.0000000000000000    0.5000000000000000 Mg
   0.0000000000000000    0.5000000000000000    0.5000000000000000 Mg
   0.5000000000000000    0.5000000000000000    0.5000000000000000 Mg
   0.2386430000000000    0.2386430000000000    0.0000000000000000 Mg
   0.7613570000000000    0.2386430000000000    0.0000000000000000 Mg
   0.2386430000000000    0.7613570000000000    0.0000000000000000 Mg
   0.7613570000000000    0.7613570000000000    0.0000000000000000 Mg
   0.2484970000000000    0.2484970000000000    0.5000000000000000 Mg
   0.7515030000000000    0.2484970000000000    0.5000000000000000 Mg
   0.2484970000000000    0.7515030000000000    0.5000000000000000 Mg
   0.7515030000000000    0.7515030000000000    0.5000000000000000 Mg
   0.2460320000000000    0.0000000000000000    0.2475490000000000 Mg
   0.7539680000000000    0.0000000000000000    0.2475490000000000 Mg
   0.2412320000000000    0.5000000000000000    0.2573110000000000 Mg
   0.7587680000000000    0.5000000000000000    0.2573110000000000 Mg
   0.2460320000000000    0.0000000000000000    0.7524510000000000 Mg
   0.7539680000000000    0.0000000000000000    0.7524510000000000 Mg
   0.2412320000000000    0.5000000000000000    0.7426890000000000 Mg
   0.7587680000000000    0.5000000000000000    0.7426890000000000 Mg
   0.0000000000000000    0.2460320000000000    0.2475490000000000 Mg
   0.5000000000000000    0.2412320000000000    0.2573110000000000 Mg
   0.0000000000000000    0.7539680000000000    0.2475490000000000 Mg
   0.5000000000000000    0.7587680000000000    0.2573110000000000 Mg
   0.0000000000000000    0.2460320000000000    0.7524510000000000 Mg
   0.5000000000000000    0.2412320000000000    0.7426890000000000 Mg
   0.0000000000000000    0.7539680000000000    0.7524510000000000 Mg
   0.5000000000000000    0.7587680000000000    0.7426890000000000 Mg
   0.0000000000000000    0.0000000000000000    0.2571250000000000 O
   0.5000000000000000    0.0000000000000000    0.2533300000000000 O
   0.0000000000000000    0.5000000000000000    0.2533300000000000 O
   0.5000000000000000    0.5000000000000000    0.2656250000000000 O
   0.0000000000000000    0.0000000000000000    0.7428750000000000 O
   0.5000000000000000    0.0000000000000000    0.7466699999999999 O
   0.0000000000000000    0.5000000000000000    0.7466699999999999 O
   0.5000000000000000    0.5000000000000000    0.7343750000000000 O
   0.2515440000000000    0.2515440000000000    0.2491480000000000 O
   0.7484560000000000    0.2515440000000000    0.2491480000000000 O
   0.2515440000000000    0.7484560000000000    0.2491480000000000 O
   0.7484560000000000    0.7484560000000000    0.2491480000000000 O
   0.2515440000000000    0.2515440000000000    0.7508520000000000 O
   0.7484560000000000    0.2515440000000000    0.7508520000000000 O
   0.2515440000000000    0.7484560000000000    0.7508520000000000 O
   0.7484560000000000    0.7484560000000000    0.7508520000000000 O
   0.2551100000000000    0.0000000000000000    0.0000000000000000 O
   0.7448900000000001    0.0000000000000000    0.0000000000000000 O
   0.2355680000000000    0.5000000000000000    0.0000000000000000 O
   0.7644320000000000    0.5000000000000000    0.0000000000000000 O
   0.2514760000000000    0.0000000000000000    0.5000000000000000 O
   0.7485240000000000    0.0000000000000000    0.5000000000000000 O
   0.2486890000000000    0.5000000000000000    0.5000000000000000 O
   0.7513110000000000    0.5000000000000000    0.5000000000000000 O
   0.0000000000000000    0.2551100000000000    0.0000000000000000 O
   0.5000000000000000    0.2355680000000000    0.0000000000000000 O
   0.0000000000000000    0.7448900000000001    0.0000000000000000 O
   0.5000000000000000    0.7644320000000000    0.0000000000000000 O
   0.0000000000000000    0.2514760000000000    0.5000000000000000 O
   0.5000000000000000    0.2486890000000000    0.5000000000000000 O
   0.0000000000000000    0.7485240000000000    0.5000000000000000 O
   0.5000000000000000    0.7513110000000000    0.5000000000000000 O
