pymatgen with grid density = 1542 / number of atoms
0
Monkhorst
2 2 2
