Li2 Sn4 P6 O24
1.0
   9.1747540000000001    0.0084850000000000   -0.0445960000000000
   5.2108400000000001    7.5564460000000002   -0.0462630000000000
   5.1707010000000002    2.7167260000000000    7.0114989999999997
Li Sn P O
2 4 6 24
direct
   0.4104570000000000    0.7174420000000000    0.2439260000000000 Li
   0.5895430000000000    0.2825580000000000    0.7560740000000000 Li
   0.1403270000000000    0.1501250000000000    0.1420720000000000 Sn
   0.3484010000000000    0.3432980000000000    0.3518960000000000 Sn
   0.6515990000000000    0.6567020000000000    0.6481040000000000 Sn
   0.8596730000000000    0.8498750000000000    0.8579280000000000 Sn
   0.0377550000000000    0.7495170000000000    0.4582600000000000 P
   0.4572790000000000    0.0452640000000000    0.7499600000000000 P
   0.7477410000000000    0.4590210000000000    0.0406050000000000 P
   0.2522580000000000    0.5409790000000000    0.9593950000000000 P
   0.5427210000000000    0.9547360000000000    0.2500400000000000 P
   0.9622450000000000    0.2504830000000000    0.5417400000000000 P
   0.9946450000000000    0.2085890000000000    0.3825800000000000 O
   0.2199500000000000    0.3809870000000000    0.9801390000000000 O
   0.3938190000000000    0.9655100000000000    0.2056680000000000 O
   0.1466430000000000    0.2216700000000000    0.5369170000000000 O
   0.2254260000000000    0.5261400000000001    0.1489610000000000 O
   0.5141559999999999    0.1534170000000000    0.2139500000000000 O
   0.1911180000000000    0.5474370000000000    0.4733720000000000 O
   0.1333370000000000    0.8820460000000000    0.2633950000000000 O
   0.2578400000000000    0.1288730000000000    0.8833910000000000 O
   0.4843840000000000    0.1793190000000000    0.5413860000000000 O
   0.5389900000000000    0.4848450000000000    0.1860910000000000 O
   0.1180910000000000    0.7377860000000001    0.8738390000000000 O
   0.8819090000000001    0.2622140000000000    0.1261610000000000 O
   0.4610100000000000    0.5151550000000000    0.8139090000000000 O
   0.5156160000000000    0.8206810000000000    0.4586140000000000 O
   0.7421600000000000    0.8711270000000000    0.1166090000000000 O
   0.8666630000000000    0.1179540000000000    0.7366050000000000 O
   0.8088820000000000    0.4525630000000000    0.5266280000000000 O
   0.4858440000000000    0.8465830000000000    0.7860500000000000 O
   0.7745740000000000    0.4738600000000000    0.8510390000000000 O
   0.8533570000000000    0.7783300000000000    0.4630830000000000 O
   0.6061810000000000    0.0344900000000000    0.7943320000000000 O
   0.7800500000000000    0.6190130000000000    0.0198620000000000 O
   0.0053550000000000    0.7914110000000000    0.6174200000000000 O
