Li4 Al4 Si4 O16
1.0
   4.9920099999999996    0.0000000000000000    0.0000000000000000
   0.0000000000000000    6.6985979999999996    0.0000000000000000
   0.0000000000000000    0.0000000000000000   10.0722030000000000
Li Al Si O
4 4 4 16
direct
   0.2566240000000000    0.9849690000000000    0.3552070000000000 Li
   0.7566240000000000    0.4849690000000000    0.1447930000000000 Li
   0.7566240000000000    0.0150310000000000    0.6447929999999999 Li
   0.2566240000000000    0.5150310000000000    0.8552070000000001 Li
   0.7514950000000000    0.5149190000000000    0.6724220000000000 Al
   0.2514950000000000    0.0149190000000000    0.8275780000000000 Al
   0.2514950000000000    0.4850810000000000    0.3275780000000000 Al
   0.7514950000000000    0.9850810000000000    0.1724220000000000 Al
   0.2506790000000000    0.2796920000000000    0.5938130000000000 Si
   0.2506790000000000    0.2203080000000000    0.0938130000000000 Si
   0.7506790000000000    0.7796920000000001    0.9061870000000000 Si
   0.7506790000000000    0.7203079999999999    0.4061870000000000 Si
   0.4038980000000000    0.0367430000000000    0.1703270000000000 O
   0.9038980000000000    0.9632570000000000    0.8296730000000000 O
   0.9270270000000000    0.2979970000000000    0.6222710000000000 O
   0.4270270000000000    0.7020030000000000    0.3777290000000000 O
   0.9038980000000000    0.5367430000000000    0.3296730000000000 O
   0.8102260000000000    0.7244180000000000    0.5662860000000000 O
   0.4270270000000000    0.7979970000000000    0.8777290000000000 O
   0.4038980000000000    0.4632570000000000    0.6703270000000000 O
   0.8544510000000000    0.5698740000000000    0.8379780000000000 O
   0.3102260000000000    0.2755820000000000    0.4337140000000000 O
   0.3544510000000000    0.4301260000000000    0.1620220000000000 O
   0.8544510000000000    0.9301260000000000    0.3379780000000000 O
   0.3544510000000000    0.0698740000000000    0.6620220000000000 O
   0.3102260000000000    0.2244180000000000    0.9337140000000000 O
   0.9270270000000000    0.2020030000000000    0.1222710000000000 O
   0.8102260000000000    0.7755820000000000    0.0662860000000000 O
