ALGO = Fast
EDIFF = 0.00125
ENCUT = 520
IBRION = 2
ISIF = 3
ISMEAR = -5
ISPIN = 2
LASPH = True
LMAXMIX = 4
LORBIT = 11
LREAL = Auto
LWAVE = False
MAGMOM = 1*0.001 1*0.403 1*0.003 1*0.002 1*0.008 1*0.001 1*0.002 1*0.009 1*0.0 1*0.002 1*0.023 1*0.012 1*0.001 1*0.019 1*0.004 3*0.001 1*0.035 1*0.002 1*0.001 1*0.033 2*0.001 1*0.003
NELM = 100
NSW = 99
PREC = Accurate
SIGMA = 0.05
