Na3 Li3 C3 O9
1.0
   3.9781510000000000   -6.8903590000000001    0.0000000000000000
   3.9781510000000000    6.8903590000000001    0.0000000000000000
   0.0000000000000000    0.0000000000000000    4.6054610000000000
Na Li C O
3 3 3 9
direct
   0.6666670000000000    0.3333330000000000    0.0000000000000000 Na
   0.3333330000000000    0.6666670000000000    0.0000000000000000 Na
   0.0000000000000000    0.0000000000000000    0.5000000000000000 Na
   0.4948890000000000    0.5051110000000000    0.5000000000000000 Li
   0.0102230000000000    0.5051110000000000    0.5000000000000000 Li
   0.4948890000000000    0.9897770000000000    0.5000000000000000 Li
   0.3333330000000000    0.6666670000000000    0.5000000000000000 C
   0.0000000000000000    0.0000000000000000    0.0000000000000000 C
   0.6666670000000000    0.3333330000000000    0.5000000000000000 C
   0.4869380000000000    0.5130620000000000    0.0000000000000000 O
   0.1784500000000000    0.3569010000000000    0.0000000000000000 O
   0.9055020000000000    0.8110050000000000    0.0000000000000000 O
   0.0261240000000000    0.5130620000000000    0.0000000000000000 O
   0.9055020000000000    0.0944980000000000    0.0000000000000000 O
   0.4869380000000000    0.9738760000000000    0.0000000000000000 O
   0.1784500000000000    0.8215500000000000    0.0000000000000000 O
   0.6430990000000000    0.8215500000000000    0.0000000000000000 O
   0.1889950000000000    0.0944980000000000    0.0000000000000000 O
