Li8 Mg4 Si20 O48
1.0
  -5.6762290000000002    5.6762290000000002    5.7154800000000003
   5.6762290000000002   -5.6762290000000002    5.7154800000000003
   5.6762290000000002    5.6762290000000002   -5.7154800000000003
Li Mg Si O
8 4 20 48
direct
   0.7510610000000000    0.3750000000000000    0.8760610000000000 Li
   0.4989390000000000    0.8750000000000000    0.1239390000000000 Li
   0.1250000000000000    0.7489400000000001    0.1239390000000000 Li
   0.6250000000000000    0.0010610000000000    0.8760610000000000 Li
   0.9989390000000000    0.8750000000000000    0.6239390000000000 Li
   0.2510610000000000    0.3750000000000000    0.3760610000000000 Li
   0.6250000000000000    0.5010610000000000    0.3760610000000000 Li
   0.1250000000000000    0.2489390000000000    0.6239390000000000 Li
   0.5000000000000000    0.0000000000000000    0.5000000000000000 Mg
   0.7500000000000000    0.7500000000000000    0.0000000000000000 Mg
   0.2500000000000000    0.2500000000000000    0.0000000000000000 Mg
   0.0000000000000000    0.5000000000000000    0.5000000000000000 Mg
   0.7500000000000000    0.2500000000000000    0.5000000000000000 Si
   0.5000000000000000    0.5000000000000000    0.0000000000000000 Si
   0.9990660000000000    0.3750000000000000    0.1240660000000000 Si
   0.2509340000000000    0.8750000000000000    0.8759340000000000 Si
   0.1250000000000000    0.0009340000000000    0.3759340000000000 Si
   0.6250000000000000    0.7490660000000000    0.6240660000000000 Si
   0.0000000000000000    0.0000000000000000    0.0000000000000000 Si
   0.2500000000000000    0.7500000000000000    0.5000000000000000 Si
   0.7509340000000000    0.8750000000000000    0.3759340000000000 Si
   0.4990660000000000    0.3750000000000000    0.6240660000000000 Si
   0.6250000000000000    0.2490660000000000    0.1240660000000000 Si
   0.1250000000000000    0.5009340000000000    0.8759340000000000 Si
   0.3750000000000000    0.1250000000000000    0.7500000000000000 Si
   0.3750000000000000    0.6250000000000000    0.2500000000000000 Si
   0.8750000000000000    0.6250000000000000    0.7500000000000000 Si
   0.8750000000000000    0.1250000000000000    0.2500000000000000 Si
   0.8750000000000000    0.1250000000000000    0.7500000000000000 Si
   0.8750000000000000    0.6250000000000000    0.2500000000000000 Si
   0.3750000000000000    0.1250000000000000    0.2500000000000000 Si
   0.3750000000000000    0.6250000000000000    0.7500000000000000 Si
   0.4483990000000000    0.5058310000000000    0.1435850000000000 O
   0.3622460000000000    0.3048140000000000    0.8564150000000000 O
   0.8877540000000000    0.2441690000000000    0.4425690000000000 O
   0.8016010000000000    0.4451860000000000    0.5574310000000000 O
   0.2597580000000000    0.0229670000000000    0.8285660000000000 O
   0.0555990000000000    0.7270330000000000    0.7367910000000000 O
   0.9902420000000000    0.3188080000000000    0.2632090000000000 O
   0.1944010000000000    0.4311920000000000    0.1714340000000000 O
   0.7718780000000000    0.7015770000000000    0.6365130000000000 O
   0.4781220000000000    0.6146350000000000    0.4296990000000000 O
   0.0650640000000000    0.1353650000000000    0.3634870000000000 O
   0.1849360000000000    0.0484230000000000    0.5703009999999999 O
   0.3016010000000000    0.7441690000000000    0.3564150000000000 O
   0.3877540000000000    0.9451860000000000    0.6435850000000000 O
   0.8622460000000000    0.0058310000000000    0.0574310000000000 O
   0.9483990000000000    0.8048140000000000    0.9425690000000000 O
   0.4902420000000000    0.2270330000000000    0.6714340000000000 O
   0.6944010000000000    0.5229670000000000    0.7632090000000000 O
   0.7597580000000000    0.9311920000000000    0.2367910000000000 O
   0.5555990000000000    0.8188080000000000    0.3285660000000000 O
   0.9781220000000000    0.5484230000000000    0.8634870000000000 O
   0.2718780000000000    0.6353650000000000    0.0703010000000000 O
   0.6849360000000000    0.1146350000000000    0.1365130000000000 O
   0.5650640000000000    0.2015770000000000    0.9296990000000001 O
   0.9515770000000000    0.5218780000000000    0.1365130000000000 O
   0.8646350000000000    0.2281220000000000    0.9296990000000001 O
   0.3853650000000000    0.8150640000000000    0.8634870000000000 O
   0.2984230000000000    0.9349360000000000    0.0703010000000000 O
   0.7558310000000000    0.1983990000000000    0.6435850000000000 O
   0.5548140000000000    0.1122460000000000    0.3564150000000000 O
   0.4941690000000000    0.6377540000000000    0.9425690000000000 O
   0.6951860000000000    0.5516010000000000    0.0574310000000000 O
   0.2729670000000000    0.0097580000000000    0.3285660000000000 O
   0.9770330000000000    0.8055990000000000    0.2367910000000000 O
   0.5688080000000000    0.7402420000000000    0.7632090000000000 O
   0.6811920000000000    0.9444010000000000    0.6714340000000000 O
   0.7984230000000000    0.7281220000000000    0.3634870000000000 O
   0.8853650000000000    0.0218780000000000    0.5703009999999999 O
   0.3646350000000000    0.4349360000000000    0.6365130000000000 O
   0.4515770000000000    0.3150640000000000    0.4296990000000000 O
   0.9941690000000000    0.0516010000000000    0.8564150000000000 O
   0.1951860000000000    0.1377540000000000    0.1435850000000000 O
   0.2558310000000000    0.6122460000000000    0.5574310000000000 O
   0.0548140000000000    0.6983990000000000    0.4425690000000000 O
   0.4770330000000000    0.2402420000000000    0.1714340000000000 O
   0.7729670000000000    0.4444010000000000    0.2632090000000000 O
   0.1811920000000000    0.5097580000000000    0.7367910000000000 O
   0.0688080000000000    0.3055990000000000    0.8285660000000000 O
