pymatgen with grid density = 753 / number of atoms
0
Gamma
5 3 3
