Li20 Si2 P4 O24
1.0
   6.9957570000000002    0.0000000000000000    0.0000000000000000
  -0.0140930000000000    7.0002069999999996    0.0000000000000000
  -0.0525340000000000   -0.1672290000000000   10.6525780000000001
Li Si P O
20 2 4 24
direct
   0.9856830000000000    0.4807230000000000    0.0643380000000000 Li
   0.9517480000000000    0.4806020000000000    0.5752980000000000 Li
   0.5247970000000000    0.0419040000000000    0.4389710000000000 Li
   0.4907340000000000    0.9909680000000000    0.9414560000000000 Li
   0.2640290000000000    0.7288440000000000    0.8448750000000000 Li
   0.7318249999999999    0.2663770000000000    0.7189810000000000 Li
   0.2009780000000000    0.1675990000000000    0.2538710000000000 Li
   0.2173180000000000    0.2427010000000000    0.7469390000000000 Li
   0.7542850000000000    0.7597140000000000    0.6443719999999999 Li
   0.4547670000000000    0.4752220000000000    0.2553290000000000 Li
   0.2307110000000000    0.7358140000000000    0.6212230000000000 Li
   0.7583910000000000    0.7507960000000000    0.1357820000000000 Li
   0.2217140000000000    0.2219300000000000    0.0006470000000000 Li
   0.7462230000000000    0.7578410000000000    0.8730500000000000 Li
   0.7624260000000000    0.2533720000000000    0.3094020000000000 Li
   0.1833550000000000    0.7644870000000000    0.0821370000000000 Li
   0.7727220000000000    0.2150390000000000    0.9941390000000000 Li
   0.2775050000000000    0.3023820000000000    0.5089530000000000 Li
   0.7525990000000000    0.7800770000000000    0.3714770000000000 Li
   0.2632360000000000    0.7944260000000000    0.3476430000000000 Li
   0.9971540000000000    0.5096180000000000    0.8240360000000000 Si
   0.5049190000000000    0.0099460000000000    0.1849460000000000 Si
   0.9957009999999999    0.0339540000000000    0.5013339999999999 P
   0.4952710000000000    0.4903440000000000    0.0049590000000000 P
   0.0135990000000000    0.5156710000000000    0.3143810000000000 P
   0.4856920000000000    0.9957290000000000    0.6859880000000000 P
   0.9918350000000000    0.8371160000000000    0.5657250000000000 O
   0.0092990000000000    0.2068950000000000    0.5944620000000000 O
   0.3147100000000000    0.4899290000000000    0.0917870000000000 O
   0.6824620000000000    0.4875500000000000    0.0865840000000000 O
   0.4889950000000000    0.3051210000000000    0.9225820000000000 O
   0.4935590000000000    0.6803350000000000    0.9314980000000000 O
   0.1784900000000000    0.0452640000000000    0.4167680000000000 O
   0.8098520000000000    0.0454510000000000    0.4207820000000000 O
   0.0108710000000000    0.6841330000000000    0.9313620000000000 O
   0.0018570000000000    0.3058220000000000    0.9012430000000000 O
   0.2061220000000000    0.5147000000000000    0.3902330000000000 O
   0.8377440000000000    0.5121730000000000    0.4034810000000000 O
   0.4764660000000000    0.1941120000000000    0.6217810000000000 O
   0.4917560000000000    0.8357160000000000    0.5825240000000000 O
   0.3001170000000000    0.0105500000000000    0.1051700000000000 O
   0.6831820000000000    0.0021980000000000    0.0855240000000000 O
   0.9981530000000000    0.3385790000000000    0.2252870000000000 O
   0.0052330000000000    0.7027740000000000    0.2356460000000000 O
   0.8036120000000000    0.5338210000000000    0.7373100000000000 O
   0.1791110000000000    0.5246430000000000    0.7266260000000000 O
   0.5195790000000000    0.8172820000000000    0.2752940000000000 O
   0.4970710000000000    0.1991580000000000    0.2809050000000000 O
   0.6709680000000000    0.9826300000000000    0.7679310000000000 O
   0.3089740000000000    0.9708650000000000    0.7717690000000000 O
