Li8 Ca12 Be12 Si12 O48 F8
1.0
  -6.5005449999999998    6.5005449999999998    6.5005449999999998
   6.5005449999999998   -6.5005449999999998    6.5005449999999998
   6.5005449999999998    6.5005449999999998   -6.5005449999999998
Li Ca Be Si O F
8 12 12 12 48 8
direct
   0.0000000000000000    0.0394430000000000    0.5000000000000000 Li
   0.5000000000000000    0.0000000000000000    0.0394430000000000 Li
   0.0394430000000000    0.5000000000000000    0.0000000000000000 Li
   0.5428670000000000    0.5000000000000000    0.0000000000000000 Li
   0.5000000000000000    0.0000000000000000    0.5428670000000000 Li
   0.9571330000000000    0.9571330000000000    0.9571330000000000 Li
   0.4605570000000000    0.4605570000000000    0.4605570000000000 Li
   0.0000000000000000    0.5428670000000000    0.5000000000000000 Li
   0.1639820000000000    0.4139820000000000    0.7500000000000000 Ca
   0.8441440000000000    0.7500000000000000    0.5941440000000000 Ca
   0.9058560000000000    0.6558560000000000    0.2500000000000000 Ca
   0.5941440000000000    0.8441440000000000    0.7500000000000000 Ca
   0.4139820000000000    0.7500000000000000    0.1639820000000000 Ca
   0.3360180000000000    0.0860180000000000    0.2500000000000000 Ca
   0.7500000000000000    0.5941440000000000    0.8441440000000000 Ca
   0.2500000000000000    0.9058560000000000    0.6558560000000000 Ca
   0.2500000000000000    0.3360180000000000    0.0860180000000000 Ca
   0.7500000000000000    0.1639820000000000    0.4139820000000000 Ca
   0.6558560000000000    0.2500000000000000    0.9058560000000000 Ca
   0.0860180000000000    0.2500000000000000    0.3360180000000000 Ca
   0.4647410000000000    0.7011269999999999    0.4244200000000000 Be
   0.7988730000000001    0.2636140000000000    0.7232940000000000 Be
   0.0403200000000000    0.0755800000000000    0.7767060000000000 Be
   0.0755800000000000    0.7767060000000000    0.0403200000000000 Be
   0.4244200000000000    0.4647410000000000    0.7011269999999999 Be
   0.4596800000000000    0.2363860000000000    0.0352590000000000 Be
   0.7011269999999999    0.4244200000000000    0.4647410000000000 Be
   0.0352590000000000    0.4596800000000000    0.2363860000000000 Be
   0.2636140000000000    0.7232940000000000    0.7988730000000001 Be
   0.7767060000000000    0.0403200000000000    0.0755800000000000 Be
   0.7232940000000000    0.7988730000000001    0.2636140000000000 Be
   0.2363860000000000    0.0352590000000000    0.4596800000000000 Be
   0.9560630000000000    0.5316000000000000    0.7354110000000000 Si
   0.9244630000000000    0.2038110000000000    0.9684000000000000 Si
   0.9684000000000000    0.9244630000000000    0.2038110000000000 Si
   0.5755370000000000    0.5439370000000000    0.2793480000000000 Si
   0.5439370000000000    0.2793480000000000    0.5755370000000000 Si
   0.2961890000000000    0.2206520000000000    0.7645890000000000 Si
   0.5316000000000000    0.7354110000000000    0.9560630000000000 Si
   0.7354110000000000    0.9560630000000000    0.5316000000000000 Si
   0.2206520000000000    0.7645890000000000    0.2961890000000000 Si
   0.2038110000000000    0.9684000000000000    0.9244630000000000 Si
   0.7645890000000000    0.2961890000000000    0.2206520000000000 Si
   0.2793480000000000    0.5755370000000000    0.5439370000000000 Si
   0.6386579999999999    0.8240730000000001    0.5489210000000000 O
   0.6759269999999999    0.3145850000000000    0.7248470000000000 O
   0.3601630000000000    0.6855360000000000    0.9100340000000000 O
   0.3145850000000000    0.7248470000000000    0.6759269999999999 O
   0.7751530000000000    0.0897370000000000    0.9510790000000000 O
   0.8613420000000001    0.4102630000000000    0.1854150000000000 O
   0.9100340000000000    0.3601630000000000    0.6855360000000000 O
   0.9039540000000000    0.9921970000000000    0.6128770000000000 O
   0.9921970000000000    0.6128770000000000    0.9039540000000000 O
   0.0498710000000000    0.3253730000000000    0.1398370000000000 O
   0.3805580000000000    0.3847960000000000    0.7900480000000000 O
   0.1746270000000000    0.2244980000000000    0.8144640000000000 O
   0.5489210000000000    0.6386579999999999    0.8240730000000001 O
   0.2755020000000000    0.4501290000000000    0.5899660000000000 O
   0.6855360000000000    0.9100340000000000    0.3601630000000000 O
   0.1152040000000000    0.4957620000000000    0.4052520000000000 O
   0.4957620000000000    0.4052520000000000    0.1152040000000000 O
   0.6128770000000000    0.9039540000000000    0.9921970000000000 O
   0.0882420000000000    0.5960460000000000    0.2089230000000000 O
   0.3253730000000000    0.1398370000000000    0.0498710000000000 O
   0.9094900000000000    0.0042380000000000    0.1194420000000000 O
   0.9510790000000000    0.7751530000000000    0.0897370000000000 O
   0.4117580000000000    0.6206800000000000    0.5078030000000000 O
   0.7900480000000000    0.3805580000000000    0.3847960000000000 O
   0.3847960000000000    0.7900480000000000    0.3805580000000000 O
   0.0947480000000000    0.5905100000000000    0.7099520000000000 O
   0.2089230000000000    0.0882420000000000    0.5960460000000000 O
   0.4102630000000000    0.1854150000000000    0.8613420000000001 O
   0.4501290000000000    0.5899660000000000    0.2755020000000000 O
   0.7099520000000000    0.0947480000000000    0.5905100000000000 O
   0.1854150000000000    0.8613420000000001    0.4102630000000000 O
   0.6206800000000000    0.5078030000000000    0.4117580000000000 O
   0.8793200000000000    0.2910770000000000    0.8871230000000000 O
   0.5960460000000000    0.2089230000000000    0.0882420000000000 O
   0.0897370000000000    0.9510790000000000    0.7751530000000000 O
   0.4052520000000000    0.1152040000000000    0.4957620000000000 O
   0.5078030000000000    0.4117580000000000    0.6206800000000000 O
   0.1194420000000000    0.9094900000000000    0.0042380000000000 O
   0.2244980000000000    0.8144640000000000    0.1746270000000000 O
   0.5899660000000000    0.2755020000000000    0.4501290000000000 O
   0.2910770000000000    0.8871230000000000    0.8793200000000000 O
   0.1398370000000000    0.0498710000000000    0.3253730000000000 O
   0.5905100000000000    0.7099520000000000    0.0947480000000000 O
   0.7248470000000000    0.6759269999999999    0.3145850000000000 O
   0.8240730000000001    0.5489210000000000    0.6386579999999999 O
   0.8144640000000000    0.1746270000000000    0.2244980000000000 O
   0.0042380000000000    0.1194420000000000    0.9094900000000000 O
   0.8871230000000000    0.8793200000000000    0.2910770000000000 O
   0.0000000000000000    0.2100310000000000    0.5000000000000000 F
   0.7100440000000000    0.5000000000000000    0.0000000000000000 F
   0.5000000000000000    0.0000000000000000    0.7100440000000000 F
   0.0000000000000000    0.7100440000000000    0.5000000000000000 F
   0.2100310000000000    0.5000000000000000    0.0000000000000000 F
   0.5000000000000000    0.0000000000000000    0.2100310000000000 F
   0.2899690000000000    0.2899690000000000    0.2899690000000000 F
   0.7899560000000000    0.7899560000000000    0.7899560000000000 F
