Li4 H8 C4 O12
1.0
   4.9024999999999999    0.0000000000000000    0.0000000000000000
   0.0000000000000000    6.5645600000000002    0.0000000000000000
   0.0000000000000000    0.0000000000000000    9.9938570000000002
Li H C O
4 8 4 12
direct
   0.2413980000000000    0.3816140000000000    0.4506720000000000 Li
   0.7413980000000000    0.6183860000000000    0.5493280000000000 Li
   0.7413980000000000    0.8816140000000000    0.0493280000000000 Li
   0.2413980000000000    0.1183860000000000    0.9506720000000000 Li
   0.6417090000000000    0.3318130000000000    0.2149830000000000 H
   0.1417090000000000    0.6681870000000000    0.7850170000000000 H
   0.1417090000000000    0.8318130000000000    0.2850170000000000 H
   0.6417090000000000    0.1681870000000000    0.7149830000000000 H
   0.1258510000000000    0.4014190000000000    0.1291760000000000 H
   0.6258510000000000    0.5985810000000000    0.8708240000000000 H
   0.6258510000000000    0.9014190000000000    0.3708240000000000 H
   0.1258510000000000    0.0985810000000000    0.6291760000000000 H
   0.7552800000000000    0.3857840000000000    0.3040590000000000 C
   0.2552800000000000    0.6142160000000000    0.6959410000000000 C
   0.2552800000000000    0.8857840000000000    0.1959410000000000 C
   0.7552800000000000    0.1142160000000000    0.8040590000000000 C
   0.1921790000000000    0.3926250000000000    0.0332140000000000 O
   0.6921790000000000    0.6073750000000000    0.9667860000000000 O
   0.6921790000000000    0.8926250000000000    0.4667860000000000 O
   0.1921790000000000    0.1073750000000000    0.5332140000000000 O
   0.0124530000000000    0.4042250000000000    0.2915030000000000 O
   0.5124530000000000    0.5957750000000001    0.7084970000000000 O
   0.5124530000000000    0.9042249999999999    0.2084970000000000 O
   0.0124530000000000    0.0957750000000000    0.7915030000000000 O
   0.6221300000000000    0.4255560000000000    0.4098130000000000 O
   0.1221300000000000    0.5744440000000000    0.5901870000000000 O
   0.1221300000000000    0.9255560000000000    0.0901870000000000 O
   0.6221300000000000    0.0744440000000000    0.9098130000000000 O
