ALGO = Fast
EDIFF = 0.0032
ENCUT = 520
IBRION = 2
ISIF = 3
ISMEAR = -5
ISPIN = 2
LASPH = True
LMAXMIX = 6
LORBIT = 11
LREAL = Auto
LWAVE = False
MAGMOM = 4*-0.001 4*6.935 12*0.0 4*0.001 4*-0.006 8*-0.011 4*-0.001 4*-0.746 4*0.001 8*-0.003 4*-0.841 4*-0.007
NELM = 100
NSW = 99
PREC = Accurate
SIGMA = 0.05
