Li4 Sb2 P10 O30
1.0
  14.0844249999999995    0.0000000000000000    0.0000000000000000
   0.0000000000000000    5.4829900000000000    0.0000000000000000
   0.0000000000000000    1.8665350000000001    8.8463740000000008
Li Sb P O
4 2 10 30
direct
   0.6421060000000000    0.9389970000000000    0.0714530000000000 Li
   0.3578940000000000    0.0610030000000000    0.9285470000000000 Li
   0.8578940000000000    0.9389970000000000    0.0714530000000000 Li
   0.1421060000000000    0.0610030000000000    0.9285470000000000 Li
   0.0000000000000000    0.5000000000000000    0.5000000000000000 Sb
   0.5000000000000000    0.5000000000000000    0.5000000000000000 Sb
   0.3542730000000000    0.0074800000000000    0.4803780000000000 P
   0.4165570000000000    0.3252400000000000    0.1784660000000000 P
   0.5834430000000000    0.6747600000000000    0.8215340000000000 P
   0.9165570000000000    0.6747600000000000    0.8215340000000000 P
   0.7500000000000000    0.4567790000000000    0.0063730000000000 P
   0.2500000000000000    0.5432210000000000    0.9936270000000000 P
   0.0834430000000000    0.3252400000000000    0.1784660000000000 P
   0.8542729999999999    0.9925200000000000    0.5196220000000000 P
   0.1457270000000000    0.0074800000000000    0.4803780000000000 P
   0.6457270000000001    0.9925200000000000    0.5196220000000000 P
   0.9455650000000000    0.8272020000000000    0.9319060000000000 O
   0.1351330000000000    0.7331460000000000    0.4833020000000000 O
   0.7500000000000000    0.1951720000000000    0.0995600000000000 O
   0.3510670000000000    0.1566120000000000    0.3092530000000000 O
   0.4455650000000000    0.1727980000000000    0.0680940000000000 O
   0.6489330000000000    0.8433880000000000    0.6907470000000000 O
   0.6598150000000000    0.4630220000000000    0.8934280000000000 O
   0.2500000000000000    0.0621510000000000    0.5370190000000000 O
   0.0544350000000000    0.1727980000000000    0.0680940000000000 O
   0.6351329999999999    0.2668540000000000    0.5166980000000000 O
   0.8510670000000000    0.8433880000000000    0.6907470000000000 O
   0.0783010000000000    0.1263480000000000    0.5752830000000000 O
   0.0087660000000000    0.4554570000000000    0.2545650000000000 O
   0.1489330000000000    0.1566120000000000    0.3092530000000000 O
   0.8401850000000000    0.4630220000000000    0.8934280000000000 O
   0.5087660000000001    0.5445430000000000    0.7454350000000000 O
   0.9912339999999999    0.5445430000000000    0.7454350000000000 O
   0.7500000000000000    0.6867270000000000    0.0727940000000000 O
   0.2500000000000000    0.8048280000000000    0.9004400000000000 O
   0.1598150000000000    0.5369780000000000    0.1065720000000000 O
   0.2500000000000000    0.3132730000000000    0.9272060000000000 O
   0.5783010000000000    0.8736520000000000    0.4247170000000000 O
   0.9216990000000000    0.8736520000000000    0.4247170000000000 O
   0.4912340000000000    0.4554570000000000    0.2545650000000000 O
   0.8648670000000001    0.2668540000000000    0.5166980000000000 O
   0.5544350000000000    0.8272020000000000    0.9319060000000000 O
   0.3648670000000000    0.7331460000000000    0.4833020000000000 O
   0.7500000000000000    0.9378490000000000    0.4629810000000000 O
   0.3401850000000000    0.5369780000000000    0.1065720000000000 O
   0.4216990000000000    0.1263480000000000    0.5752830000000000 O
