Li12 Nd12 Te8 O48
1.0
  -6.3538509999999997    6.3538509999999997    6.3538509999999997
   6.3538509999999997   -6.3538509999999997    6.3538509999999997
   6.3538509999999997    6.3538509999999997   -6.3538509999999997
Li Nd Te O
12 12 8 48
direct
   0.1250000000000000    0.7500000000000000    0.8750000000000000 Li
   0.1250000000000000    0.8750000000000000    0.2500000000000000 Li
   0.2500000000000000    0.6250000000000000    0.3750000000000000 Li
   0.2500000000000000    0.1250000000000000    0.8750000000000000 Li
   0.3750000000000000    0.6250000000000000    0.7500000000000000 Li
   0.3750000000000000    0.2500000000000000    0.6250000000000000 Li
   0.6250000000000000    0.7500000000000000    0.3750000000000000 Li
   0.6250000000000000    0.3750000000000000    0.2500000000000000 Li
   0.7500000000000000    0.8750000000000000    0.1250000000000000 Li
   0.7500000000000000    0.3750000000000000    0.6250000000000000 Li
   0.8750000000000000    0.1250000000000000    0.7500000000000000 Li
   0.8750000000000000    0.2500000000000000    0.1250000000000000 Li
   0.7500000000000000    0.1250000000000000    0.3750000000000000 Nd
   0.6250000000000000    0.8750000000000000    0.7500000000000000 Nd
   0.8750000000000000    0.6250000000000000    0.2500000000000000 Nd
   0.1250000000000000    0.2500000000000000    0.3750000000000000 Nd
   0.7500000000000000    0.6250000000000000    0.8750000000000000 Nd
   0.6250000000000000    0.2500000000000000    0.8750000000000000 Nd
   0.3750000000000000    0.7500000000000000    0.1250000000000000 Nd
   0.2500000000000000    0.3750000000000000    0.1250000000000000 Nd
   0.8750000000000000    0.7500000000000000    0.6250000000000000 Nd
   0.1250000000000000    0.3750000000000000    0.7500000000000000 Nd
   0.3750000000000000    0.1250000000000000    0.2500000000000000 Nd
   0.2500000000000000    0.8750000000000000    0.6250000000000000 Nd
   0.0000000000000000    0.5000000000000000    0.5000000000000000 Te
   0.0000000000000000    0.5000000000000000    0.0000000000000000 Te
   0.0000000000000000    0.0000000000000000    0.5000000000000000 Te
   0.0000000000000000    0.0000000000000000    0.0000000000000000 Te
   0.5000000000000000    0.5000000000000000    0.5000000000000000 Te
   0.5000000000000000    0.0000000000000000    0.5000000000000000 Te
   0.5000000000000000    0.5000000000000000    0.0000000000000000 Te
   0.5000000000000000    0.0000000000000000    0.0000000000000000 Te
   0.4061290000000000    0.0762950000000000    0.8830519999999999 O
   0.4237050000000000    0.0938710000000000    0.6169480000000001 O
   0.4237050000000000    0.8298340000000000    0.8067569999999999 O
   0.9061290000000000    0.3830520000000000    0.5762950000000000 O
   0.4061290000000000    0.8298340000000000    0.5230770000000000 O
   0.6701660000000000    0.0938710000000000    0.9769230000000000 O
   0.9237050000000000    0.1169480000000000    0.5938710000000000 O
   0.9237050000000000    0.3067570000000000    0.3298340000000000 O
   0.6701660000000000    0.0762950000000000    0.6932430000000001 O
   0.5230770000000000    0.6169480000000001    0.6932430000000001 O
   0.6932430000000001    0.6701660000000000    0.0762950000000000 O
   0.6169480000000001    0.4237050000000000    0.0938710000000000 O
   0.5230770000000000    0.4061290000000000    0.8298340000000000 O
   0.9061290000000000    0.0230770000000000    0.3298340000000000 O
   0.1701660000000000    0.4769230000000000    0.5938710000000000 O
   0.8067569999999999    0.8830519999999999    0.9769230000000000 O
   0.6169480000000001    0.6932430000000001    0.5230770000000000 O
   0.1701660000000000    0.1932430000000000    0.5762950000000000 O
   0.0230770000000000    0.1932430000000000    0.1169480000000000 O
   0.1932430000000000    0.5762950000000000    0.1701660000000000 O
   0.1169480000000000    0.5938710000000000    0.9237050000000000 O
   0.0230770000000000    0.3298340000000000    0.9061290000000000 O
   0.8830519999999999    0.9769230000000000    0.8067569999999999 O
   0.6932430000000001    0.5230770000000000    0.6169480000000001 O
   0.3067570000000000    0.4769230000000000    0.3830520000000000 O
   0.1169480000000000    0.0230770000000000    0.1932430000000000 O
   0.9769230000000000    0.6701660000000000    0.0938710000000000 O
   0.8830519999999999    0.4061290000000000    0.0762950000000000 O
   0.8067569999999999    0.4237050000000000    0.8298340000000000 O
   0.9769230000000000    0.8067569999999999    0.8830519999999999 O
   0.8298340000000000    0.8067569999999999    0.4237050000000000 O
   0.3830520000000000    0.3067570000000000    0.4769230000000000 O
   0.1932430000000000    0.1169480000000000    0.0230770000000000 O
   0.8298340000000000    0.5230770000000000    0.4061290000000000 O
   0.0938710000000000    0.9769230000000000    0.6701660000000000 O
   0.4769230000000000    0.5938710000000000    0.1701660000000000 O
   0.3830520000000000    0.5762950000000000    0.9061290000000000 O
   0.3067570000000000    0.3298340000000000    0.9237050000000000 O
   0.4769230000000000    0.3830520000000000    0.3067570000000000 O
   0.3298340000000000    0.9237050000000000    0.3067570000000000 O
   0.0762950000000000    0.6932430000000001    0.6701660000000000 O
   0.0762950000000000    0.8830519999999999    0.4061290000000000 O
   0.3298340000000000    0.9061290000000000    0.0230770000000000 O
   0.5938710000000000    0.1701660000000000    0.4769230000000000 O
   0.0938710000000000    0.6169480000000001    0.4237050000000000 O
   0.5762950000000000    0.1701660000000000    0.1932430000000000 O
   0.5762950000000000    0.9061290000000000    0.3830520000000000 O
   0.5938710000000000    0.9237050000000000    0.1169480000000000 O
