ALGO = Fast
EDIFF = 0.0028
ENCUT = 520
IBRION = 2
ISIF = 3
ISMEAR = -5
ISPIN = 2
LASPH = True
LORBIT = 11
LREAL = Auto
LWAVE = False
MAGMOM = 4*0.001 4*0.002 4*0.022 4*0.023 4*1.909 4*1.897 4*-0.226 4*-0.139 4*-0.177 4*-0.163 1*-0.183 3*-0.182 1*-0.233 1*-0.232 2*-0.233 4*-0.122 1*-0.266 1*-0.265 1*-0.266 1*-0.265
NELM = 100
NSW = 99
PREC = Accurate
SIGMA = 0.05
