Li8 S8 N8 O32
1.0
   0.0000000000000000    0.0000000000000000   -5.4438556900000004
   0.0273153100000000   -9.3320342299999997    0.0000000000000000
 -17.9332759499999987    0.0530604900000000    0.0000000000000000
Li S N O
8 8 8 32
direct
   0.7332889500000001    0.5889813600000000    0.3383233500000000 Li
   0.2332889500000000    0.4110186400000000    0.1616766500000000 Li
   0.2667110500000000    0.4110186400000000    0.6616766500000000 Li
   0.7667110499999999    0.5889813600000000    0.8383233500000000 Li
   0.7701581199999999    0.9067937000000000    0.0857741000000000 Li
   0.2701581200000000    0.0932063000000000    0.4142259000000000 Li
   0.2298418800000000    0.0932063000000000    0.9142259000000000 Li
   0.7298418800000001    0.9067937000000000    0.5857741000000000 Li
   0.7608030500000000    0.9154038400000000    0.3980549400000000 S
   0.2608030500000000    0.0845961600000000    0.1019450600000000 S
   0.2391969500000000    0.0845961600000000    0.6019450600000000 S
   0.7391969500000000    0.9154038400000000    0.8980549400000000 S
   0.7347095700000000    0.5747771400000000    0.1482081900000000 S
   0.2347095700000000    0.4252228600000000    0.3517918100000000 S
   0.2652904300000000    0.4252228600000000    0.8517918100000000 S
   0.7652904300000000    0.5747771400000000    0.6482081900000000 S
   0.2314113000000000    0.7820159900000000    0.2516728800000000 N
   0.7314113000000000    0.2179840100000000    0.2483271200000000 N
   0.7685887000000000    0.2179840100000000    0.7483271200000000 N
   0.2685887000000000    0.7820159900000000    0.7516728800000000 N
   0.2526038900000000    0.7046268700000000    0.0038377500000000 N
   0.7526038900000001    0.2953731300000000    0.4961622500000000 N
   0.7473961099999999    0.2953731300000000    0.9961622500000000 N
   0.2473961100000000    0.7046268700000000    0.5038377500000000 N
   0.7262021800000000    0.8721597100000000    0.4772512300000000 O
   0.2262021800000000    0.1278402900000000    0.0227487700000000 O
   0.2737978200000000    0.1278402900000000    0.5227487700000000 O
   0.7737978200000000    0.8721597100000000    0.9772512300000000 O
   0.6092353400000000    0.0435470300000000    0.3829728600000000 O
   0.1092353400000000    0.9564529700000000    0.1170271400000000 O
   0.3907646600000000    0.9564529700000000    0.6170271400000000 O
   0.8907646600000000    0.0435470300000000    0.8829728600000000 O
   0.0248825000000000    0.9462496100000000    0.3863164000000000 O
   0.5248825000000000    0.0537503900000000    0.1136836000000000 O
   0.9751175000000000    0.0537503900000000    0.6136836000000000 O
   0.4751175000000000    0.9462496100000000    0.8863164000000000 O
   0.6862363400000000    0.7959710200000000    0.3486193300000000 O
   0.1862363400000000    0.2040289800000000    0.1513806700000000 O
   0.3137636600000000    0.2040289800000000    0.6513806700000000 O
   0.8137636600000000    0.7959710200000000    0.8486193300000000 O
   0.7347710900000000    0.5675688900000000    0.2305389400000000 O
   0.2347710900000000    0.4324311100000000    0.2694610600000000 O
   0.2652289100000000    0.4324311100000000    0.7694610600000000 O
   0.7652289100000000    0.5675688900000000    0.7305389400000000 O
   0.5468097200000001    0.4760769000000000    0.1159797300000000 O
   0.0468097200000000    0.5239231000000000    0.3840202700000000 O
   0.4531902800000000    0.5239231000000000    0.8840202700000001 O
   0.9531902799999999    0.4760769000000000    0.6159797299999999 O
   0.9787543700000000    0.5377666100000000    0.1177892600000000 O
   0.4787543700000000    0.4622333900000000    0.3822107400000000 O
   0.0212456300000000    0.4622333900000000    0.8822107400000000 O
   0.5212456300000000    0.5377666100000000    0.6177892600000000 O
   0.6584028600000000    0.7220266700000000    0.1270313800000000 O
   0.1584028600000000    0.2779733300000000    0.3729686200000000 O
   0.3415971400000000    0.2779733300000000    0.8729686200000000 O
   0.8415971400000000    0.7220266700000000    0.6270313800000000 O
