pymatgen with grid density = 930 / number of atoms
0
Monkhorst
2 4 2
