Li6 Ca6 P6 O24
1.0
   3.8335119999999998   -6.6398380000000001    0.0000000000000000
   3.8335119999999998    6.6398380000000001    0.0000000000000000
   0.0000000000000000    0.0000000000000000   10.0523530000000001
Li Ca P O
6 6 6 24
direct
   0.0399450000000000    0.2376300000000000    0.2563100000000000 Li
   0.7623700000000000    0.8023150000000000    0.2563100000000000 Li
   0.1976850000000000    0.9600550000000000    0.2563100000000000 Li
   0.2376300000000000    0.0399450000000000    0.7563100000000000 Li
   0.8023150000000000    0.7623700000000000    0.7563100000000000 Li
   0.9600550000000000    0.1976850000000000    0.7563100000000000 Li
   0.0194810000000000    0.5416670000000000    0.4853540000000000 Ca
   0.9805190000000000    0.5221860000000000    0.9853540000000000 Ca
   0.4778140000000000    0.4583330000000000    0.9853540000000000 Ca
   0.5416670000000000    0.0194810000000000    0.9853540000000000 Ca
   0.5221860000000000    0.9805190000000000    0.4853540000000000 Ca
   0.4583330000000000    0.4778140000000000    0.4853540000000000 Ca
   0.0000000000000000    0.0000000000000000    0.9996480000000000 P
   0.3333330000000000    0.6666670000000000    0.7572040000000000 P
   0.6666670000000000    0.3333330000000000    0.2572040000000000 P
   0.6666670000000000    0.3333330000000000    0.6858840000000000 P
   0.3333330000000000    0.6666670000000000    0.1858840000000000 P
   0.0000000000000000    0.0000000000000000    0.4996480000000000 P
   0.7674440000000000    0.5507520000000000    0.6281240000000000 O
   0.5230840000000000    0.6661060000000000    0.8076270000000000 O
   0.3338940000000000    0.8569790000000000    0.8076270000000000 O
   0.1430210000000000    0.4769160000000000    0.8076270000000000 O
   0.6661060000000000    0.5230840000000000    0.3076270000000000 O
   0.8569790000000000    0.3338940000000000    0.3076270000000000 O
   0.4769160000000000    0.1430210000000000    0.3076270000000000 O
   0.7833080000000000    0.2325560000000000    0.6281240000000000 O
   0.6666670000000000    0.3333330000000000    0.8402160000000000 O
   0.4492480000000000    0.2166920000000000    0.6281240000000000 O
   0.2325560000000000    0.7833080000000000    0.1281240000000000 O
   0.5507520000000000    0.7674440000000000    0.1281240000000000 O
   0.0000000000000000    0.0000000000000000    0.1548180000000000 O
   0.0000000000000000    0.0000000000000000    0.6548180000000000 O
   0.3333330000000000    0.6666670000000000    0.3402160000000000 O
   0.2210610000000000    0.1250620000000000    0.9456560000000001 O
   0.6666670000000000    0.3333330000000000    0.1012190000000000 O
   0.3333330000000000    0.6666670000000000    0.6012189999999999 O
   0.7789390000000000    0.9040010000000001    0.4456560000000000 O
   0.8749380000000000    0.0959990000000000    0.9456560000000001 O
   0.9040010000000001    0.7789390000000000    0.9456560000000001 O
   0.1250620000000000    0.2210610000000000    0.4456560000000000 O
   0.0959990000000000    0.8749380000000000    0.4456560000000000 O
   0.2166920000000000    0.4492480000000000    0.1281240000000000 O
