Li3 Zn2 Sb1 O6
1.0
   4.5853539999999997    2.6598920000000001    0.0000000000000000
  -4.5853539999999997    2.6598920000000001    0.0000000000000000
   0.0000000000000000    1.8281689999999999    4.9436499999999999
Li Zn Sb O
3 2 1 6
direct
   0.1701010000000000    0.8298990000000001    0.5000000000000000 Li
   0.8298990000000001    0.1701010000000000    0.5000000000000000 Li
   0.5000000000000000    0.5000000000000000    0.5000000000000000 Li
   0.3334040000000000    0.6665960000000000    0.0000000000000000 Zn
   0.6665960000000000    0.3334040000000000    0.0000000000000000 Zn
   0.0000000000000000    0.0000000000000000    0.0000000000000000 Sb
   0.3925290000000000    0.0787080000000000    0.7644160000000000 O
   0.2352700000000000    0.2352700000000000    0.2285160000000000 O
   0.6074710000000000    0.9212920000000000    0.2355840000000000 O
   0.0787080000000000    0.3925290000000000    0.7644160000000000 O
   0.7647300000000000    0.7647300000000000    0.7714839999999999 O
   0.9212920000000000    0.6074710000000000    0.2355840000000000 O
