pymatgen with grid density = 1193 / number of atoms
0
Monkhorst
4 4 2
