pymatgen with grid density = 1312 / number of atoms
0
Gamma
3 3 3
