Li2 P6 Pb2 O18
1.0
   6.8678819999999998    0.0000000000000000    0.0000000000000000
   1.0238790000000000    7.2900609999999997    0.0000000000000000
   1.3748020000000001    0.6492910000000000    7.3752730000000000
Li P Pb O
2 6 2 18
direct
   0.4579520000000000    0.8272690000000000    0.8303810000000000 Li
   0.5420480000000000    0.1727310000000000    0.1696190000000000 Li
   0.4147190000000000    0.3849970000000000    0.7817920000000000 P
   0.8487860000000000    0.2820530000000000    0.7711040000000000 P
   0.2327140000000000    0.1572580000000000    0.5600670000000000 P
   0.5852810000000001    0.6150030000000000    0.2182080000000000 P
   0.7672860000000000    0.8427420000000000    0.4399330000000000 P
   0.1512140000000000    0.7179470000000000    0.2288960000000000 P
   0.9745620000000000    0.7690850000000000    0.8484920000000000 Pb
   0.0254380000000000    0.2309150000000000    0.1515080000000000 Pb
   0.3580870000000000    0.5875070000000000    0.7947320000000000 O
   0.6780130000000000    0.6701210000000000    0.3844760000000000 O
   0.0079070000000000    0.7729170000000000    0.4164370000000000 O
   0.3748990000000000    0.2522150000000000    0.9483810000000000 O
   0.9920930000000000    0.2270830000000000    0.5835630000000001 O
   0.1751660000000000    0.8842400000000000    0.0929690000000000 O
   0.6251010000000000    0.7477850000000000    0.0516190000000000 O
   0.7066910000000000    0.8504680000000000    0.6413680000000000 O
   0.3502700000000000    0.6494090000000000    0.3092160000000000 O
   0.3219870000000000    0.3298790000000000    0.6155240000000000 O
   0.6497300000000000    0.3505910000000000    0.6907840000000000 O
   0.7352830000000000    0.0100550000000000    0.3115570000000000 O
   0.2647170000000000    0.9899450000000000    0.6884430000000000 O
   0.9304110000000000    0.4354150000000000    0.8401149999999999 O
   0.6419130000000000    0.4124930000000000    0.2052680000000000 O
   0.8248340000000000    0.1157600000000000    0.9070310000000000 O
   0.0695890000000000    0.5645850000000000    0.1598850000000000 O
   0.2933090000000000    0.1495320000000000    0.3586320000000000 O
