pymatgen with grid density = 1457 / number of atoms
0
Gamma
2 5 5
