Li8 H32 S8 N8 O32
1.0
   5.3680190000000003    0.0000000000000000    0.0000000000000000
   0.0000000000000000    9.2116310000000006    0.0000000000000000
   0.0000000000000000    0.0378790000000000   17.5204589999999989
Li H S N O
8 32 8 8 32
direct
   0.2338080000000000    0.0891770000000000    0.6608840000000000 Li
   0.7338080000000000    0.9108230000000000    0.8391160000000000 Li
   0.7661920000000000    0.9108230000000000    0.3391160000000000 Li
   0.2661920000000000    0.0891770000000000    0.1608840000000000 Li
   0.2744480000000000    0.4095770000000000    0.9136080000000000 Li
   0.7744480000000000    0.5904230000000000    0.5863920000000000 Li
   0.7255520000000000    0.5904230000000000    0.0863920000000000 Li
   0.2255520000000000    0.4095770000000000    0.4136080000000000 Li
   0.6806770000000000    0.1733030000000000    0.7544000000000000 H
   0.1806770000000000    0.8266970000000000    0.7456000000000000 H
   0.3193230000000000    0.8266970000000000    0.2456000000000000 H
   0.8193230000000000    0.1733030000000000    0.2544000000000000 H
   0.9103860000000000    0.2873140000000000    0.7282240000000000 H
   0.4103860000000000    0.7126860000000000    0.7717760000000000 H
   0.0896140000000000    0.7126860000000000    0.2717760000000000 H
   0.5896140000000000    0.2873140000000000    0.2282240000000000 H
   0.6156100000000000    0.3299210000000000    0.7074730000000000 H
   0.1156100000000000    0.6700790000000000    0.7925270000000000 H
   0.3843900000000000    0.6700790000000000    0.2925270000000000 H
   0.8843900000000000    0.3299210000000000    0.2074730000000000 H
   0.7088370000000001    0.3357600000000000    0.8002960000000000 H
   0.2088370000000000    0.6642400000000001    0.6997040000000000 H
   0.2911630000000000    0.6642400000000001    0.1997040000000000 H
   0.7911629999999999    0.3357600000000000    0.3002960000000000 H
   0.6380900000000000    0.2839110000000000    0.0136690000000000 H
   0.1380900000000000    0.7160890000000000    0.4863310000000000 H
   0.3619100000000000    0.7160890000000000    0.9863310000000000 H
   0.8619100000000000    0.2839110000000000    0.5136690000000000 H
   0.9029900000000000    0.2482940000000000    0.9638510000000000 H
   0.4029900000000000    0.7517060000000000    0.5361490000000000 H
   0.0970100000000000    0.7517060000000000    0.0361490000000000 H
   0.5970100000000000    0.2482940000000000    0.4638510000000000 H
   0.6580560000000000    0.1373810000000000    0.9574470000000000 H
   0.1580560000000000    0.8626190000000000    0.5425530000000000 H
   0.3419440000000000    0.8626190000000000    0.0425530000000000 H
   0.8419440000000000    0.1373810000000000    0.4574470000000000 H
   0.8305270000000000    0.1437150000000000    0.0400520000000000 H
   0.3305270000000000    0.8562850000000000    0.4599480000000000 H
   0.1694730000000000    0.8562850000000000    0.9599480000000000 H
   0.6694730000000000    0.1437150000000000    0.5400520000000000 H
   0.2614130000000000    0.4146380000000000    0.6032500000000000 S
   0.7614130000000000    0.5853620000000000    0.8967500000000000 S
   0.7385870000000000    0.5853620000000000    0.3967500000000000 S
   0.2385870000000000    0.4146380000000000    0.1032500000000000 S
   0.2310550000000000    0.0761870000000000    0.8526560000000000 S
   0.7310550000000000    0.9238130000000000    0.6473440000000000 S
   0.7689450000000000    0.9238130000000000    0.1473440000000000 S
   0.2689450000000000    0.0761870000000000    0.3526560000000000 S
   0.7283640000000000    0.2812950000000000    0.7483400000000000 N
   0.2283640000000000    0.7187050000000000    0.7516600000000000 N
   0.2716360000000000    0.7187050000000000    0.2516600000000000 N
   0.7716360000000000    0.2812950000000000    0.2483400000000000 N
   0.7581260000000000    0.2040410000000000    0.9944360000000000 N
   0.2581260000000000    0.7959590000000000    0.5055640000000000 N
   0.2418740000000000    0.7959590000000000    0.0055640000000000 N
   0.7418740000000000    0.2040410000000000    0.4944360000000000 N
   0.2179320000000000    0.3712170000000000    0.5228470000000000 O
   0.7179320000000000    0.6287830000000000    0.9771530000000000 O
   0.7820680000000000    0.6287830000000000    0.4771530000000000 O
   0.2820680000000000    0.3712170000000000    0.0228470000000000 O
   0.1748480000000000    0.2963210000000000    0.6551240000000000 O
   0.6748480000000000    0.7036790000000001    0.8448760000000000 O
   0.8251520000000000    0.7036790000000001    0.3448760000000000 O
   0.3251520000000000    0.2963210000000000    0.1551240000000000 O
   0.5324170000000000    0.4401240000000000    0.6171600000000000 O
   0.0324170000000000    0.5598760000000000    0.8828400000000000 O
   0.4675830000000000    0.5598760000000000    0.3828400000000000 O
   0.9675830000000000    0.4401240000000000    0.1171600000000000 O
   0.1185740000000000    0.5503340000000000    0.6203210000000000 O
   0.6185740000000000    0.4496660000000000    0.8796790000000000 O
   0.8814260000000000    0.4496660000000000    0.3796790000000000 O
   0.3814260000000000    0.5503340000000000    0.1203210000000000 O
   0.2348300000000000    0.0602480000000000    0.7690000000000000 O
   0.7348300000000000    0.9397520000000000    0.7310000000000000 O
   0.7651700000000000    0.9397520000000000    0.2310000000000000 O
   0.2651700000000000    0.0602480000000000    0.2690000000000000 O
   0.1567960000000000    0.2260500000000000    0.8738939999999999 O
   0.6567960000000000    0.7739500000000000    0.6261060000000001 O
   0.8432040000000000    0.7739500000000000    0.1261060000000000 O
   0.3432040000000000    0.2260500000000000    0.3738940000000000 O
   0.4841350000000000    0.0420570000000000    0.8842480000000000 O
   0.9841350000000000    0.9579430000000000    0.6157520000000000 O
   0.5158650000000000    0.9579430000000000    0.1157520000000000 O
   0.0158650000000000    0.0420570000000000    0.3842480000000000 O
   0.0481580000000000    0.9699520000000000    0.8859600000000000 O
   0.5481580000000000    0.0300480000000000    0.6140400000000000 O
   0.9518420000000000    0.0300480000000000    0.1140400000000000 O
   0.4518420000000000    0.9699520000000000    0.3859600000000000 O
