ALGO = Fast
EDIFF = 0.0019
ENCUT = 520
IBRION = 2
ISIF = 3
ISMEAR = -5
ISPIN = 2
LASPH = True
LORBIT = 11
LREAL = Auto
LWAVE = False
MAGMOM = 4*-0.007 4*0.002 2*-0.002 4*-0.0 4*0.061 4*0.165 4*0.013 4*0.014 4*0.012 4*1.359
NELM = 100
NSW = 99
PREC = Accurate
SIGMA = 0.05
