Li4 Al4 Si6 O24
1.0
   0.0000000000000000    8.7575389999999995    9.0995720000000002
   3.3344559999999999    0.0000000000000000    9.0995720000000002
   3.3344559999999999    8.7575389999999995    0.0000000000000000
Li Al Si O
4 4 6 24
direct
   0.1295250000000000    0.4689010000000000    0.7967480000000000 Li
   0.6048260000000000    0.7967480000000000    0.4689010000000000 Li
   0.4532520000000000    0.6451740000000000    0.1204750000000000 Li
   0.7810990000000000    0.1204750000000000    0.6451740000000000 Li
   0.0039120000000000    0.6895559999999999    0.5557450000000000 Al
   0.7507860000000000    0.5557450000000000    0.6895559999999999 Al
   0.6942550000000000    0.4992140000000000    0.2460880000000000 Al
   0.5604440000000001    0.2460880000000000    0.4992140000000000 Al
   0.2567920000000000    0.2432080000000000    0.2432080000000000 Si
   0.0067920000000000    0.9932080000000000    0.9932080000000000 Si
   0.2416680000000000    0.7000840000000000    0.5525780000000000 Si
   0.5056700000000000    0.5525780000000000    0.7000840000000000 Si
   0.6974220000000000    0.7443300000000000    0.0083320000000000 Si
   0.5499160000000000    0.0083320000000000    0.7443300000000000 Si
   0.1998060000000000    0.4473060000000000    0.3115690000000000 O
   0.0413190000000000    0.3115690000000000    0.4473060000000000 O
   0.9384310000000000    0.2086810000000000    0.0501940000000000 O
   0.8026940000000000    0.0501940000000000    0.2086810000000000 O
   0.1020020000000000    0.7785410000000000    0.5150390000000000 O
   0.6044180000000000    0.5150390000000000    0.7785410000000000 O
   0.7349610000000000    0.6455820000000000    0.1479980000000000 O
   0.4714590000000000    0.1479980000000000    0.6455820000000000 O
   0.9227190000000000    0.6577800000000000    0.7844630000000000 O
   0.6350380000000000    0.7844630000000000    0.6577800000000000 O
   0.4655370000000000    0.6149620000000000    0.3272810000000000 O
   0.5922200000000000    0.3272810000000000    0.6149620000000000 O
   0.3163050000000000    0.4935760000000000    0.5858840000000000 O
   0.6042350000000000    0.5858840000000000    0.4935760000000000 O
   0.6641160000000000    0.6457650000000000    0.9336950000000001 O
   0.7564240000000000    0.9336950000000001    0.6457650000000000 O
   0.0703920000000000    0.9221080000000000    0.7772890000000000 O
   0.2302110000000000    0.7772890000000000    0.9221080000000000 O
   0.4727110000000000    0.0197890000000000    0.1796080000000000 O
   0.3278920000000000    0.1796080000000000    0.0197890000000000 O
   0.5807750000000000    0.3437200000000000    0.9681030000000000 O
   0.1074020000000000    0.9681030000000000    0.3437200000000000 O
   0.2818970000000000    0.1425980000000000    0.6692250000000000 O
   0.9062800000000000    0.6692250000000000    0.1425980000000000 O
