pymatgen with grid density = 1173 / number of atoms
0
Gamma
3 3 3
