K1 Li1 Mg14 O15
1.0
   8.6314844500000003    0.0000000000000000    0.0000000000000000
   0.0000000000000000    8.6026485200000007    0.0000000000000000
   0.0000000000000000    0.0000000000000000    4.4109674900000000
K Li Mg O
1 1 14 15
direct
   0.9917352300000000   -0.0000000000000000    0.0000000000000000 K
   0.9761467200000000    0.5000000000000000    0.0000000000000000 Li
   0.4995004400000000   -0.0000000000000000    0.0000000000000000 Mg
   0.5200332600000001    0.5000000000000000    0.0000000000000000 Mg
   0.0046855000000000    0.2583580100000000    0.5000000000000000 Mg
   0.0046855000000000    0.7416419900000000    0.5000000000000000 Mg
   0.4982006100000000    0.2520472400000000    0.5000000000000000 Mg
   0.4982006100000000    0.7479527600000000    0.5000000000000000 Mg
   0.2490157900000000   -0.0000000000000000    0.5000000000000000 Mg
   0.2381327000000000    0.5000000000000000    0.5000000000000000 Mg
   0.7493238900000000   -0.0000000000000000    0.5000000000000000 Mg
   0.7664520900000000    0.5000000000000000    0.5000000000000000 Mg
   0.2449664900000000    0.2286788600000000    0.0000000000000000 Mg
   0.2449664900000000    0.7713211400000000   -0.0000000000000000 Mg
   0.7583041000000000    0.2541303800000000   -0.0000000000000000 Mg
   0.7583041000000000    0.7458696200000000    0.0000000000000000 Mg
   0.2736003400000000   -0.0000000000000000    0.0000000000000000 O
   0.7215880200000000   -0.0000000000000000    0.0000000000000000 O
   0.7458685800000000    0.5000000000000000    0.0000000000000000 O
   0.2519074900000000    0.2576911600000000    0.5000000000000000 O
   0.2519074900000000    0.7423088400000000    0.5000000000000000 O
   0.7500782600000000    0.2528908600000000    0.5000000000000000 O
   0.7500782600000000    0.7471091399999999    0.5000000000000000 O
   0.0090041600000000   -0.0000000000000000    0.5000000000000000 O
   0.0068056000000000    0.5000000000000000    0.5000000000000000 O
   0.4968444300000000   -0.0000000000000000    0.5000000000000000 O
   0.4836901500000000    0.5000000000000000    0.5000000000000000 O
   0.0159301100000000    0.2814146300000000    0.0000000000000000 O
   0.0159301100000000    0.7185853700000000    0.0000000000000000 O
   0.4870567300000000    0.2652089400000000    0.0000000000000000 O
   0.4870567300000000    0.7347910600000001    0.0000000000000000 O
