Li4 P4 H16 N4 O12 F4
1.0
   5.0706090000000001    0.0000000000000000    0.0000000000000000
   0.0000000000000000    5.5264389999999999    0.0000000000000000
   0.0000000000000000    0.0364740000000000   14.5283630000000006
Li P H N O F
4 4 16 4 12 4
direct
   0.4450190000000000    0.8153140000000000    0.7453360000000000 Li
   0.9450190000000001    0.1846860000000000    0.7546640000000000 Li
   0.5549809999999999    0.1846860000000000    0.2546640000000000 Li
   0.0549810000000000    0.8153140000000000    0.2453360000000000 Li
   0.4408160000000000    0.2981610000000000    0.8559740000000000 P
   0.9408160000000000    0.7018390000000000    0.6440260000000000 P
   0.5591840000000000    0.7018390000000000    0.1440260000000000 P
   0.0591840000000000    0.2981610000000000    0.3559740000000000 P
   0.5204930000000000    0.2735180000000000    0.5165850000000000 H
   0.0204930000000000    0.7264820000000000    0.9834150000000000 H
   0.4795070000000000    0.7264820000000000    0.4834150000000000 H
   0.9795070000000000    0.2735180000000000    0.0165850000000000 H
   0.2747380000000000    0.2983160000000000    0.5970370000000000 H
   0.7747380000000000    0.7016840000000000    0.9029630000000000 H
   0.7252620000000000    0.7016840000000000    0.4029630000000000 H
   0.2252620000000000    0.2983160000000000    0.0970370000000000 H
   0.5065240000000000    0.0670940000000000    0.6019900000000000 H
   0.0065240000000000    0.9329060000000000    0.8980100000000000 H
   0.4934760000000000    0.9329060000000000    0.3980100000000000 H
   0.9934760000000000    0.0670940000000000    0.1019900000000000 H
   0.5905270000000000    0.3553940000000000    0.6243810000000000 H
   0.0905270000000000    0.6446060000000000    0.8756190000000000 H
   0.4094730000000000    0.6446060000000000    0.3756190000000000 H
   0.9094730000000000    0.3553940000000000    0.1243810000000000 H
   0.4700910000000000    0.2481120000000000    0.5845970000000000 N
   0.9700910000000000    0.7518880000000000    0.9154030000000000 N
   0.5299090000000000    0.7518880000000000    0.4154030000000000 N
   0.0299090000000000    0.2481120000000000    0.0845970000000000 N
   0.5791240000000000    0.1270710000000000    0.7897360000000000 O
   0.0791240000000000    0.8729290000000000    0.7102640000000000 O
   0.4208760000000000    0.8729290000000000    0.2102640000000000 O
   0.9208760000000000    0.1270710000000000    0.2897360000000000 O
   0.4959570000000000    0.5658210000000000    0.8396700000000000 O
   0.9959570000000000    0.4341790000000000    0.6603300000000000 O
   0.5040430000000000    0.4341790000000000    0.1603300000000000 O
   0.0040430000000000    0.5658210000000000    0.3396700000000000 O
   0.1490040000000000    0.2395610000000000    0.8719690000000000 O
   0.6490040000000000    0.7604390000000000    0.6280310000000000 O
   0.8509960000000000    0.7604390000000000    0.1280310000000000 O
   0.3509960000000000    0.2395610000000000    0.3719690000000000 O
   0.5787720000000000    0.2447230000000000    0.9551090000000000 F
   0.0787720000000000    0.7552770000000000    0.5448910000000000 F
   0.4212280000000000    0.7552770000000000    0.0448910000000000 F
   0.9212280000000000    0.2447230000000000    0.4551090000000000 F
