pymatgen with grid density = 1030 / number of atoms
0
Gamma
5 3 2
