pymatgen with grid density = 1597 / number of atoms
0
Gamma
4 5 2
