Li6 Sc2 B4 O12
1.0
   6.0003739999999999    0.0000000000000000    0.0000000000000000
   0.0000000000000000    4.8232869999999997    0.0000000000000000
   0.0000000000000000    4.7273180000000004    8.2446880000000000
Li Sc B O
6 2 4 12
direct
   0.2503670000000000    0.6872400000000000    0.7972210000000000 Li
   0.2496330000000000    0.6872400000000000    0.2972210000000000 Li
   0.7503670000000000    0.3127600000000000    0.7027790000000000 Li
   0.7496330000000000    0.3127600000000000    0.2027790000000000 Li
   0.5000000000000000    0.0000000000000000    0.0000000000000000 Li
   0.0000000000000000    0.0000000000000000    0.5000000000000000 Li
   0.5000000000000000    0.0000000000000000    0.5000000000000000 Sc
   0.0000000000000000    0.0000000000000000    0.0000000000000000 Sc
   0.8049809999999999    0.6103700000000000    0.3747090000000000 B
   0.3049810000000000    0.3896300000000000    0.1252910000000000 B
   0.1950190000000000    0.3896300000000000    0.6252910000000000 B
   0.6950190000000001    0.6103700000000000    0.8747090000000000 B
   0.5864770000000000    0.6333190000000000    0.7398890000000000 O
   0.9135230000000000    0.6333190000000000    0.2398890000000000 O
   0.2532910000000000    0.6915080000000000    0.4990060000000000 O
   0.7532910000000000    0.3084920000000000    0.0009940000000000 O
   0.2377010000000000    0.1241220000000000    0.6099650000000000 O
   0.4135230000000000    0.3666810000000000    0.2601110000000000 O
   0.7467090000000000    0.3084920000000000    0.5009940000000001 O
   0.2467090000000000    0.6915080000000000    0.9990059999999999 O
   0.0864770000000000    0.3666810000000000    0.7601110000000000 O
   0.2622990000000000    0.1241220000000000    0.1099650000000000 O
   0.7377010000000001    0.8758780000000000    0.8900350000000000 O
   0.7622989999999999    0.8758780000000000    0.3900350000000000 O
