Li9 Sb3 P6 O24
1.0
   4.3734070000000003   -7.5749630000000003    0.0000000000000000
   4.3734070000000003    7.5749630000000003    0.0000000000000000
   0.0000000000000000    0.0000000000000000    7.2298999999999998
Li Sb P O
9 3 6 24
direct
   0.3646970000000000    0.0518620000000000    0.1583290000000000 Li
   0.9481380000000000    0.3128360000000000    0.1583290000000000 Li
   0.0000000000000000    0.0000000000000000    0.0000000000000000 Li
   0.3333330000000000    0.6666670000000000    0.0242180000000000 Li
   0.3128360000000000    0.3646970000000000    0.8416709999999999 Li
   0.6871640000000000    0.6353030000000000    0.1583290000000000 Li
   0.6666670000000000    0.3333330000000000    0.9757820000000000 Li
   0.0518620000000000    0.6871640000000000    0.8416709999999999 Li
   0.6353030000000000    0.9481380000000000    0.8416709999999999 Li
   0.0000000000000000    0.0000000000000000    0.5000000000000000 Sb
   0.3333330000000000    0.6666670000000000    0.5454909999999999 Sb
   0.6666670000000000    0.3333330000000000    0.4545090000000000 Sb
   0.0248290000000000    0.6887920000000000    0.2573600000000000 P
   0.3112080000000000    0.3360370000000000    0.2573600000000000 P
   0.6639630000000000    0.9751710000000000    0.2573600000000000 P
   0.3360370000000000    0.0248290000000000    0.7426400000000000 P
   0.6887920000000000    0.6639630000000000    0.7426400000000000 P
   0.9751710000000000    0.3112080000000000    0.7426400000000000 P
   0.1318150000000000    0.9289490000000000    0.7668220000000000 O
   0.1562660000000000    0.7297890000000000    0.0971570000000000 O
   0.1189070000000000    0.7348479999999999    0.4466400000000000 O
   0.3939130000000000    0.8784459999999999    0.7547680000000000 O
   0.1215540000000000    0.5154670000000000    0.7547680000000000 O
   0.0710510000000000    0.2028660000000000    0.7668220000000000 O
   0.6159420000000000    0.8810930000000000    0.4466400000000000 O
   0.2028660000000000    0.1318150000000000    0.2331780000000000 O
   0.2651520000000000    0.3840580000000000    0.4466400000000000 O
   0.2702110000000000    0.4264770000000000    0.0971570000000000 O
   0.5735230000000000    0.8437340000000000    0.0971570000000000 O
   0.4845330000000000    0.6060870000000000    0.7547680000000000 O
   0.5154670000000000    0.3939130000000000    0.2452320000000000 O
   0.4264770000000000    0.1562660000000000    0.9028430000000000 O
   0.7297890000000000    0.5735230000000000    0.9028430000000000 O
   0.7348479999999999    0.6159420000000000    0.5533600000000000 O
   0.7971340000000000    0.8681850000000000    0.7668220000000000 O
   0.3840580000000000    0.1189070000000000    0.5533600000000000 O
   0.9289490000000000    0.7971340000000000    0.2331780000000000 O
   0.8784459999999999    0.4845330000000000    0.2452320000000000 O
   0.6060870000000000    0.1215540000000000    0.2452320000000000 O
   0.8810930000000000    0.2651520000000000    0.5533600000000000 O
   0.8437340000000000    0.2702110000000000    0.9028430000000000 O
   0.8681850000000000    0.0710510000000000    0.2331780000000000 O
