ALGO = Fast
EDIFF = 0.0011
ENCUT = 520
IBRION = 2
ISIF = 3
ISMEAR = -5
ISPIN = 2
LASPH = True
LMAXMIX = 6
LORBIT = 11
LREAL = Auto
LWAVE = False
MAGMOM = 2*-0.001 2*0.003 2*0.0 2*-0.022 1*0.28 1*0.336 1*0.226 1*0.002 1*0.007 1*0.006 2*0.004 1*0.006 1*0.007 1*0.002 1*0.226 1*0.336 1*0.28
NELM = 100
NSW = 99
PREC = Accurate
SIGMA = 0.05
