Li2 Pr2 P2 C2 O14
1.0
   7.0889470000000001    0.0000000000000000    0.0000000000000000
   0.0000000000000000    4.9424830000000002    0.0000000000000000
   0.0000000000000000    0.7977740000000000    9.4565210000000004
Li Pr P C O
2 2 2 2 14
direct
   0.5547480000000000    0.7497670000000000    0.7747150000000000 Li
   0.0547480000000000    0.2502330000000000    0.2252850000000000 Li
   0.2226190000000000    0.2375640000000000    0.6279210000000000 Pr
   0.7226190000000000    0.7624360000000000    0.3720790000000000 Pr
   0.7211790000000000    0.2723740000000000    0.6035840000000000 P
   0.2211790000000000    0.7276260000000000    0.3964160000000000 P
   0.2827300000000000    0.2791520000000000    0.9403350000000000 C
   0.7827300000000000    0.7208480000000000    0.0596650000000000 C
   0.7297920000000000    0.6870430000000000    0.9357340000000000 O
   0.2958190000000000    0.0399140000000000    0.8971990000000000 O
   0.3196280000000000    0.4774760000000000    0.8464260000000000 O
   0.9067410000000000    0.1859770000000000    0.6774520000000001 O
   0.5507180000000000    0.1055490000000000    0.6627840000000000 O
   0.2367810000000000    0.7585070000000000    0.5606890000000000 O
   0.6813960000000000    0.5809810000000000    0.6116050000000000 O
   0.1813960000000000    0.4190190000000000    0.3883950000000000 O
   0.7367810000000000    0.2414930000000000    0.4393110000000000 O
   0.0507180000000000    0.8944510000000000    0.3372160000000000 O
   0.4067410000000000    0.8140230000000001    0.3225480000000000 O
   0.8196280000000000    0.5225240000000000    0.1535740000000000 O
   0.7958190000000001    0.9600860000000000    0.1028010000000000 O
   0.2297920000000000    0.3129570000000000    0.0642660000000000 O
