pymatgen with grid density = 1073 / number of atoms
0
Gamma
2 5 3
