Li2 Bi2 P4 O14
1.0
   9.0757610000000000    0.0000000000000000    0.0000000000000000
   0.0000000000000000    5.0383459999999998    0.0000000000000000
   0.0000000000000000    2.2176930000000001    7.1178260000000000
Li Bi P O
2 2 4 14
direct
   0.2120780000000000    0.7997649999999999    0.6511870000000000 Li
   0.7120780000000000    0.2002350000000000    0.3488130000000000 Li
   0.0580440000000000    0.1970570000000000    0.2706010000000000 Bi
   0.5580440000000000    0.8029430000000000    0.7293990000000000 Bi
   0.2615330000000000    0.7855040000000000    0.0774750000000000 P
   0.7615330000000000    0.2144960000000000    0.9225250000000000 P
   0.8819690000000000    0.5877840000000000    0.5606080000000000 P
   0.3819690000000000    0.4122160000000000    0.4393920000000000 P
   0.3825940000000000    0.5923290000000000    0.2190210000000000 O
   0.2537200000000000    0.0670570000000000    0.1150090000000000 O
   0.7537199999999999    0.9329430000000000    0.8849910000000000 O
   0.3178840000000000    0.8032150000000000    0.8813830000000000 O
   0.7433090000000000    0.7767130000000000    0.5223420000000000 O
   0.0244560000000000    0.7572250000000000    0.5359780000000000 O
   0.3773400000000000    0.6155020000000000    0.5568620000000000 O
   0.2433090000000000    0.2232870000000000    0.4776580000000000 O
   0.8825940000000000    0.4076710000000000    0.7809790000000000 O
   0.6104180000000000    0.3612250000000000    0.8810440000000000 O
   0.1104180000000000    0.6387750000000000    0.1189560000000000 O
   0.8773400000000000    0.3844980000000000    0.4431380000000000 O
   0.5244560000000000    0.2427750000000000    0.4640220000000000 O
   0.8178840000000001    0.1967850000000000    0.1186170000000000 O
