pymatgen with grid density = 1674 / number of atoms
0
Gamma
5 3 1
