Li4 As12 H8 O36
1.0
   8.8154319999999995    0.0000000000000000    0.0000000000000000
   0.0000000000000000    9.8397340000000000    0.0000000000000000
   0.0000000000000000    4.9786720000000004    9.0217089999999995
Li As H O
4 12 8 36
direct
   0.8941120000000000    0.8751840000000000    0.5081770000000000 Li
   0.6058880000000000    0.8751840000000000    0.0081770000000000 Li
   0.1058880000000000    0.1248160000000000    0.4918230000000000 Li
   0.3941120000000000    0.1248160000000000    0.9918230000000000 Li
   0.8170710000000000    0.5700200000000000    0.2558990000000000 As
   0.6829290000000000    0.5700200000000000    0.7558990000000000 As
   0.1829290000000000    0.4299800000000000    0.7441010000000000 As
   0.3170710000000000    0.4299800000000000    0.2441010000000000 As
   0.2374880000000000    0.9036530000000000    0.3588390000000000 As
   0.2625120000000000    0.9036530000000000    0.8588390000000000 As
   0.7625120000000000    0.0963470000000000    0.6411610000000000 As
   0.7374880000000000    0.0963470000000000    0.1411610000000000 As
   0.1199130000000000    0.5785690000000000    0.4064490000000000 As
   0.3800870000000000    0.5785690000000000    0.9064489999999999 As
   0.8800870000000000    0.4214310000000000    0.5935510000000001 As
   0.6199130000000000    0.4214310000000000    0.0935510000000000 As
   0.4179040000000000    0.7617100000000000    0.5312710000000000 H
   0.0820960000000000    0.7617100000000000    0.0312710000000000 H
   0.5820959999999999    0.2382900000000000    0.4687290000000000 H
   0.9179040000000001    0.2382900000000000    0.9687290000000000 H
   0.2644040000000000    0.1600070000000000    0.2133230000000000 H
   0.2355960000000000    0.1600070000000000    0.7133230000000000 H
   0.7355960000000000    0.8399930000000000    0.7866770000000000 H
   0.7644040000000000    0.8399930000000000    0.2866770000000000 H
   0.7235260000000000    0.7377650000000000    0.1945030000000000 O
   0.7764740000000000    0.7377650000000000    0.6945030000000000 O
   0.2764740000000000    0.2622350000000000    0.8054970000000000 O
   0.2235260000000000    0.2622350000000000    0.3054970000000000 O
   0.7977090000000000    0.4796490000000000    0.1469250000000000 O
   0.7022910000000000    0.4796490000000000    0.6469250000000000 O
   0.2022910000000000    0.5203510000000000    0.8530750000000000 O
   0.2977090000000000    0.5203510000000000    0.3530750000000000 O
   0.7706660000000000    0.4226860000000000    0.4354390000000000 O
   0.7293340000000000    0.4226860000000000    0.9354390000000000 O
   0.2293340000000000    0.5773140000000000    0.5645610000000000 O
   0.2706660000000000    0.5773140000000000    0.0645610000000000 O
   0.0172390000000000    0.5920299999999999    0.2389330000000000 O
   0.4827610000000000    0.5920299999999999    0.7389330000000000 O
   0.9827610000000000    0.4079700000000000    0.7610670000000000 O
   0.5172390000000000    0.4079700000000000    0.2610670000000000 O
   0.1141990000000000    0.9333120000000000    0.4653530000000000 O
   0.3858010000000000    0.9333120000000000    0.9653530000000000 O
   0.8858009999999999    0.0666880000000000    0.5346470000000000 O
   0.6141990000000001    0.0666880000000000    0.0346470000000000 O
   0.4216090000000000    0.8499250000000000    0.4298930000000000 O
   0.0783910000000000    0.8499250000000000    0.9298930000000000 O
   0.5783910000000000    0.1500750000000000    0.5701070000000000 O
   0.9216090000000000    0.1500750000000000    0.0701070000000000 O
   0.2781100000000000    0.0711880000000000    0.1908780000000000 O
   0.2218900000000000    0.0711880000000000    0.6908780000000000 O
   0.7218900000000000    0.9288120000000000    0.8091220000000000 O
   0.7781100000000000    0.9288120000000000    0.3091220000000000 O
   0.1689320000000000    0.7846280000000000    0.2885080000000000 O
   0.3310680000000000    0.7846280000000000    0.7885080000000000 O
   0.8310680000000000    0.2153720000000000    0.7114920000000000 O
   0.6689320000000000    0.2153720000000000    0.2114920000000000 O
   0.9400050000000000    0.6252690000000000    0.4723400000000000 O
   0.5599950000000000    0.6252690000000000    0.9723400000000000 O
   0.0599950000000000    0.3747310000000000    0.5276600000000000 O
   0.4400050000000000    0.3747310000000000    0.0276600000000000 O
