pymatgen with grid density = 1132 / number of atoms
0
Gamma
4 2 1
