Li12 Sn12 P12 O48
1.0
   5.3967200000000002    0.0000000000000000    0.0000000000000000
   0.0000000000000000    8.6846770000000006    0.0000000000000000
   0.0000000000000000    0.0000000000000000   25.1423540000000010
Li Sn P O
12 12 12 48
direct
   0.7416830000000000    0.9292330000000000    0.0904670000000000 Li
   0.2247160000000000    0.4178390000000000    0.0737210000000000 Li
   0.7347660000000000    0.5829610000000000    0.2594660000000000 Li
   0.2347660000000000    0.0829610000000000    0.2405340000000000 Li
   0.7247160000000000    0.9178390000000000    0.4262790000000000 Li
   0.2416830000000000    0.4292330000000000    0.4095330000000000 Li
   0.7416830000000000    0.5707670000000000    0.5904670000000000 Li
   0.2247160000000000    0.0821610000000000    0.5737210000000000 Li
   0.7347660000000000    0.9170390000000000    0.7594660000000000 Li
   0.2347660000000000    0.4170390000000000    0.7405340000000000 Li
   0.7247160000000000    0.5821610000000000    0.9262790000000000 Li
   0.2416830000000000    0.0707670000000000    0.9095330000000000 Li
   0.7413280000000000    0.2579110000000000    0.9821410000000000 Sn
   0.2167840000000000    0.7569200000000000    0.1838740000000000 Sn
   0.7572530000000000    0.2494000000000000    0.1492840000000000 Sn
   0.2572530000000000    0.7494000000000000    0.3507160000000000 Sn
   0.7167840000000000    0.2569200000000000    0.3161260000000000 Sn
   0.2413280000000000    0.7579110000000000    0.5178590000000000 Sn
   0.7413280000000000    0.2420890000000000    0.4821410000000000 Sn
   0.2167840000000000    0.7430800000000000    0.6838740000000000 Sn
   0.7572530000000000    0.2506000000000000    0.6492840000000000 Sn
   0.2572530000000000    0.7506000000000000    0.8507160000000000 Sn
   0.7167840000000000    0.2430800000000000    0.8161260000000000 Sn
   0.2413280000000000    0.7420890000000000    0.0178590000000000 Sn
   0.7247250000000000    0.5820070000000001    0.0616230000000000 P
   0.2550820000000000    0.0840860000000000    0.1042090000000000 P
   0.7274770000000000    0.9236030000000000    0.2266870000000000 P
   0.2274770000000000    0.4236030000000000    0.2733130000000000 P
   0.7550820000000000    0.5840860000000000    0.3957910000000000 P
   0.2247250000000000    0.0820070000000000    0.4383770000000000 P
   0.7247250000000000    0.9179929999999999    0.5616230000000000 P
   0.2550820000000000    0.4159140000000000    0.6042090000000000 P
   0.7274770000000000    0.5763970000000000    0.7266870000000000 P
   0.2274770000000000    0.0763970000000000    0.7733130000000000 P
   0.7550820000000000    0.9159140000000000    0.8957910000000000 P
   0.2247250000000000    0.4179930000000000    0.9383770000000000 P
   0.6963760000000000    0.5403860000000000    0.0023220000000000 O
   0.3782140000000000    0.9570120000000000    0.0701740000000000 O
   0.4142680000000000    0.2361600000000000    0.0980360000000000 O
   0.9856660000000000    0.1187280000000000    0.0840340000000000 O
   0.8808900000000000    0.7345460000000000    0.0658280000000000 O
   0.4573190000000000    0.6095290000000000    0.0847200000000000 O
   0.8628080000000000    0.4562580000000000    0.0939410000000000 O
   0.2481590000000000    0.0427550000000000    0.1638840000000000 O
   0.7419930000000000    0.9677920000000000    0.1674540000000000 O
   0.0963080000000000    0.5484440000000000    0.2392950000000000 O
   0.4952690000000000    0.3930090000000000    0.2514340000000000 O
   0.0727570000000000    0.2694910000000000    0.2689540000000000 O
   0.5727570000000000    0.7694910000000000    0.2310460000000000 O
   0.9952690000000000    0.8930090000000001    0.2485660000000000 O
   0.5963079999999999    0.0484440000000000    0.2607050000000000 O
   0.2419930000000000    0.4677920000000000    0.3325460000000000 O
   0.7481590000000000    0.5427550000000000    0.3361160000000000 O
   0.3628080000000000    0.9562580000000001    0.4060590000000000 O
   0.9573190000000000    0.1095290000000000    0.4152800000000000 O
   0.3808900000000000    0.2345460000000000    0.4341720000000000 O
   0.4856660000000000    0.6187279999999999    0.4159660000000000 O
   0.9142680000000000    0.7361600000000000    0.4019640000000000 O
   0.8782140000000001    0.4570120000000000    0.4298260000000000 O
   0.1963760000000000    0.0403860000000000    0.4976780000000000 O
   0.6963760000000000    0.9596140000000000    0.5023220000000000 O
   0.3782140000000000    0.5429880000000000    0.5701740000000000 O
   0.4142680000000000    0.2638400000000000    0.5980360000000000 O
   0.9856660000000000    0.3812720000000000    0.5840340000000001 O
   0.8808900000000000    0.7654540000000000    0.5658280000000000 O
   0.4573190000000000    0.8904710000000000    0.5847200000000000 O
   0.8628080000000000    0.0437420000000000    0.5939410000000001 O
   0.2481590000000000    0.4572450000000000    0.6638840000000000 O
   0.7419930000000000    0.5322080000000000    0.6674540000000000 O
   0.0963080000000000    0.9515560000000000    0.7392950000000000 O
   0.4952690000000000    0.1069910000000000    0.7514340000000000 O
   0.0727570000000000    0.2305090000000000    0.7689540000000000 O
   0.5727570000000000    0.7305090000000000    0.7310460000000000 O
   0.9952690000000000    0.6069909999999999    0.7485660000000000 O
   0.5963079999999999    0.4515560000000000    0.7607050000000000 O
   0.2419930000000000    0.0322080000000000    0.8325460000000000 O
   0.7481590000000000    0.9572450000000000    0.8361160000000000 O
   0.3628080000000000    0.5437419999999999    0.9060589999999999 O
   0.9573190000000000    0.3904710000000000    0.9152800000000000 O
   0.3808900000000000    0.2654540000000000    0.9341720000000000 O
   0.4856660000000000    0.8812720000000001    0.9159659999999999 O
   0.9142680000000000    0.7638400000000000    0.9019640000000000 O
   0.8782140000000001    0.0429880000000000    0.9298260000000000 O
   0.1963760000000000    0.4596140000000000    0.9976780000000000 O
