pymatgen with grid density = 1026 / number of atoms
0
Gamma
1 3 2
