Li4 C6 S2 N12 O14
1.0
   4.4958499999999999    8.5129040000000007    0.0000000000000000
  -4.4958499999999999    8.5129040000000007    0.0000000000000000
   0.0000000000000000    3.0580229999999999    7.4528359999999996
Li C S N O
4 6 2 12 14
direct
   0.2343130000000000    0.6142780000000000    0.6703140000000000 Li
   0.3857220000000000    0.7656870000000000    0.8296860000000000 Li
   0.7656870000000000    0.3857220000000000    0.3296860000000000 Li
   0.6142780000000000    0.2343130000000000    0.1703140000000000 Li
   0.4196960000000000    0.0943750000000000    0.7553879999999999 C
   0.9056250000000000    0.5803040000000000    0.7446120000000001 C
   0.5803040000000000    0.9056250000000000    0.2446120000000000 C
   0.0943750000000000    0.4196960000000000    0.2553880000000000 C
   0.0354580000000000    0.9645420000000000    0.7500000000000000 C
   0.9645420000000000    0.0354580000000000    0.2500000000000000 C
   0.6080090000000000    0.3919910000000000    0.7500000000000000 S
   0.3919910000000000    0.6080090000000000    0.2500000000000000 S
   0.3381610000000000    0.1705380000000000    0.8949600000000000 N
   0.8294620000000000    0.6618390000000000    0.6050400000000000 N
   0.6618390000000000    0.8294620000000000    0.1050400000000000 N
   0.1705380000000000    0.3381610000000000    0.3949600000000000 N
   0.5223510000000000    0.1328610000000000    0.6156220000000000 N
   0.8671390000000000    0.4776490000000000    0.8843780000000000 N
   0.4776490000000000    0.8671390000000000    0.3843780000000000 N
   0.1328610000000000    0.5223510000000000    0.1156220000000000 N
   0.9013840000000000    0.9729160000000000    0.7155800000000000 N
   0.0270840000000000    0.0986160000000000    0.7844200000000000 N
   0.0986160000000000    0.0270840000000000    0.2844200000000000 N
   0.9729160000000000    0.9013840000000000    0.2155800000000000 N
   0.6775480000000000    0.2693920000000000    0.9113660000000000 O
   0.7306080000000000    0.3224520000000000    0.5886340000000000 O
   0.3224520000000000    0.7306080000000000    0.0886340000000000 O
   0.2693920000000000    0.6775480000000000    0.4113660000000000 O
   0.5825750000000000    0.5621400000000000    0.7428120000000000 O
   0.4378600000000000    0.4174250000000000    0.7571880000000000 O
   0.4174250000000000    0.4378600000000000    0.2571880000000000 O
   0.5621400000000000    0.5825750000000000    0.2428120000000000 O
   0.4000830000000000    0.9711930000000000    0.7543440000000000 O
   0.0288070000000000    0.5999170000000000    0.7456560000000000 O
   0.5999170000000000    0.0288070000000000    0.2456560000000000 O
   0.9711930000000000    0.4000830000000000    0.2543440000000000 O
   0.1798900000000000    0.8201100000000000    0.7500000000000000 O
   0.8201100000000000    0.1798900000000000    0.2500000000000000 O
