Li2 La4 S4 O16 F6
1.0
   3.5107750000000002    7.9176029999999997    0.0000000000000000
  -3.5107750000000002    7.9176029999999997    0.0000000000000000
   0.0000000000000000    3.7474829999999999    7.4428630000000000
Li La S O F
2 4 4 16 6
direct
   0.5930029999999999    0.4069970000000000    0.2500000000000000 Li
   0.4069970000000000    0.5930029999999999    0.7500000000000000 Li
   0.7866020000000000    0.9733020000000000    0.9657360000000000 La
   0.9733020000000000    0.7866020000000000    0.4657360000000000 La
   0.0266980000000000    0.2133980000000000    0.5342640000000000 La
   0.2133980000000000    0.0266980000000000    0.0342640000000000 La
   0.2418610000000000    0.4109470000000000    0.1552540000000000 S
   0.7581390000000000    0.5890530000000000    0.8447460000000000 S
   0.4109470000000000    0.2418610000000000    0.6552540000000000 S
   0.5890530000000000    0.7581390000000000    0.3447460000000000 S
   0.1815890000000000    0.2793500000000000    0.1701150000000000 O
   0.2793500000000000    0.1815890000000000    0.6701150000000000 O
   0.6040759999999999    0.1549780000000000    0.5109629999999999 O
   0.3959240000000000    0.8450220000000001    0.4890370000000000 O
   0.1549780000000000    0.6040759999999999    0.0109630000000000 O
   0.7101710000000000    0.5241190000000000    0.3802300000000000 O
   0.8450220000000001    0.3959240000000000    0.9890360000000000 O
   0.4758810000000000    0.2898290000000000    0.1197700000000000 O
   0.2898290000000000    0.4758810000000000    0.6197700000000000 O
   0.1483770000000000    0.4663300000000000    0.3373370000000000 O
   0.4663300000000000    0.1483770000000000    0.8373370000000000 O
   0.8184110000000000    0.7206500000000000    0.8298850000000000 O
   0.5336700000000000    0.8516230000000000    0.1626630000000000 O
   0.7206500000000000    0.8184110000000000    0.3298850000000000 O
   0.5241190000000000    0.7101710000000000    0.8802300000000000 O
   0.8516230000000000    0.5336700000000000    0.6626630000000000 O
   0.0056210000000000    0.0892410000000000    0.3357080000000000 F
   0.0892410000000000    0.0056210000000000    0.8357080000000000 F
   0.9943790000000000    0.9107590000000000    0.6642920000000000 F
   0.9107590000000000    0.9943790000000000    0.1642920000000000 F
   0.3062680000000000    0.6937320000000000    0.2500000000000000 F
   0.6937320000000000    0.3062680000000000    0.7500000000000000 F
