Na8 Li10 B6 O18
1.0
   3.7096529999999999    6.2859069999999999    0.0000000000000000
  -3.7096529999999999    6.2859069999999999    0.0000000000000000
   0.0000000000000000    2.9480789999999999    9.4232859999999992
Na Li B O
8 10 6 18
direct
   0.3665920000000000    0.8787020000000000    0.4836030000000000 Na
   0.3335880000000000    0.2227880000000000    0.7869660000000001 Na
   0.7772120000000000    0.6664120000000000    0.7130339999999999 Na
   0.1212980000000000    0.6334080000000000    0.0163970000000000 Na
   0.2227880000000000    0.3335880000000000    0.2869660000000000 Na
   0.6664120000000000    0.7772120000000000    0.2130340000000000 Na
   0.8787020000000000    0.3665920000000000    0.9836030000000000 Na
   0.6334080000000000    0.1212980000000000    0.5163970000000000 Na
   0.0772570000000000    0.0127010000000000    0.8606660000000000 Li
   0.7230230000000000    0.2769770000000000    0.7500000000000000 Li
   0.4820650000000000    0.7045700000000000    0.9879220000000000 Li
   0.9872990000000000    0.9227430000000000    0.6393340000000000 Li
   0.2954300000000000    0.5179350000000000    0.5120780000000000 Li
   0.2769770000000000    0.7230230000000000    0.2500000000000000 Li
   0.0127010000000000    0.0772570000000000    0.3606660000000000 Li
   0.7045700000000000    0.4820650000000000    0.4879220000000000 Li
   0.5179350000000000    0.2954300000000000    0.0120780000000000 Li
   0.9227430000000000    0.9872990000000000    0.1393340000000000 Li
   0.3958670000000000    0.6041330000000000    0.7500000000000000 B
   0.6041330000000000    0.3958670000000000    0.2500000000000000 B
   0.0835540000000000    0.2511530000000000    0.5968650000000000 B
   0.2511530000000000    0.0835540000000000    0.0968650000000000 B
   0.7488470000000000    0.9164460000000000    0.9031350000000000 B
   0.9164460000000000    0.7488470000000000    0.4031350000000000 B
   0.0319080000000000    0.7917610000000000    0.4750380000000000 O
   0.2082390000000000    0.9680920000000000    0.0249620000000000 O
   0.5215400000000000    0.5327850000000000    0.8548660000000000 O
   0.2905730000000000    0.0012290000000000    0.2367350000000000 O
   0.9680920000000000    0.2082390000000000    0.5249620000000000 O
   0.0012290000000000    0.2905730000000000    0.7367350000000000 O
   0.7237250000000000    0.7513380000000000    0.4697860000000000 O
   0.2486620000000000    0.2762750000000000    0.0302140000000000 O
   0.2096430000000000    0.7903570000000000    0.7500000000000000 O
   0.4672150000000000    0.4784600000000000    0.6451340000000000 O
   0.7917610000000000    0.0319080000000000    0.9750380000000000 O
   0.5327850000000000    0.5215400000000000    0.3548660000000000 O
   0.4784600000000000    0.4672150000000000    0.1451340000000000 O
   0.7903570000000000    0.2096430000000000    0.2500000000000000 O
   0.7094270000000000    0.9987710000000000    0.7632650000000000 O
   0.9987710000000000    0.7094270000000000    0.2632650000000000 O
   0.7513380000000000    0.7237250000000000    0.9697860000000000 O
   0.2762750000000000    0.2486620000000000    0.5302140000000000 O
