pymatgen with grid density = 1341 / number of atoms
0
Gamma
3 5 2
