Li1 Mg14 Sb1 O16
1.0
   8.6496869200000006    0.0000000000000000    0.0000000000000000
   0.0000000000000000    8.6496869200000006    0.0000000000000000
   0.0000000000000000    0.0000000000000000    4.3290423300000000
Li Mg Sb O
1 14 1 16
direct
  -0.0000000000000000    0.0000000000000000   -0.0000000000000000 Li
  -0.0000000000000000    0.5000000000000000   -0.0000000000000000 Mg
   0.5000000000000000    0.0000000000000000   -0.0000000000000000 Mg
  -0.0000000000000000    0.2412347000000000    0.5000000000000000 Mg
  -0.0000000000000000    0.7587653000000000    0.5000000000000000 Mg
   0.5000000000000000    0.2354327200000000    0.5000000000000000 Mg
   0.5000000000000000    0.7645672800000000    0.5000000000000000 Mg
   0.2412347000000000    0.0000000000000000    0.5000000000000000 Mg
   0.2354327200000000    0.5000000000000000    0.5000000000000000 Mg
   0.7587653000000000    0.0000000000000000    0.5000000000000000 Mg
   0.7645672800000000    0.5000000000000000    0.5000000000000000 Mg
   0.2381970000000000    0.2381970000000000   -0.0000000000000000 Mg
   0.2381970000000000    0.7618030000000000    0.0000000000000000 Mg
   0.7618030000000000    0.2381970000000000   -0.0000000000000000 Mg
   0.7618030000000000    0.7618030000000000   -0.0000000000000000 Mg
   0.5000000000000000    0.5000000000000000   -0.0000000000000000 Sb
   0.2567972600000000    0.0000000000000000   -0.0000000000000000 O
   0.2385743300000000    0.5000000000000000   -0.0000000000000000 O
   0.7432027400000000    0.0000000000000000    0.0000000000000000 O
   0.7614256700000001    0.5000000000000000    0.0000000000000000 O
   0.2522387900000000    0.2522387900000000    0.5000000000000000 O
   0.2522387900000000    0.7477612100000000    0.5000000000000000 O
   0.7477612100000000    0.2522387900000000    0.5000000000000000 O
   0.7477612100000000    0.7477612100000000    0.5000000000000000 O
  -0.0000000000000000    0.0000000000000000    0.5000000000000000 O
  -0.0000000000000000    0.5000000000000000    0.5000000000000000 O
   0.5000000000000000    0.0000000000000000    0.5000000000000000 O
   0.5000000000000000    0.5000000000000000    0.5000000000000000 O
  -0.0000000000000000    0.2567972600000000   -0.0000000000000000 O
  -0.0000000000000000    0.7432027400000000    0.0000000000000000 O
   0.5000000000000000    0.2385743300000000   -0.0000000000000000 O
   0.5000000000000000    0.7614256700000001   -0.0000000000000000 O
