Li12 Er4 N24 O72
1.0
   7.6457639999999998    0.0000000000000000    0.0000000000000000
   0.0000000000000000    7.9233190000000002    0.0000000000000000
   0.0000000000000000    0.4335090000000000   24.4885230000000007
Li Er N O
12 4 24 72
direct
   0.8151730000000000    0.2130420000000000    0.3644490000000000 Li
   0.9404380000000000    0.0014520000000000    0.7546400000000000 Li
   0.7112840000000000    0.7572090000000000    0.5246760000000000 Li
   0.4404380000000000    0.4985480000000000    0.7453600000000000 Li
   0.5595620000000000    0.5014520000000000    0.2546400000000000 Li
   0.0595620000000000    0.9985480000000000    0.2453600000000000 Li
   0.2887160000000000    0.2427910000000000    0.4753240000000000 Li
   0.1848270000000000    0.7869580000000000    0.6355510000000000 Li
   0.3151730000000000    0.2869580000000000    0.1355510000000000 Li
   0.6848270000000000    0.7130420000000000    0.8644490000000000 Li
   0.2112840000000000    0.7427910000000000    0.9753240000000000 Li
   0.7887160000000000    0.2572090000000000    0.0246760000000000 Li
   0.8047580000000000    0.7565910000000000    0.1094380000000000 Er
   0.1952420000000000    0.2434090000000000    0.8905620000000000 Er
   0.6952420000000000    0.2565910000000000    0.6094380000000000 Er
   0.3047580000000000    0.7434090000000000    0.3905620000000000 Er
   0.3774430000000000    0.3954640000000000    0.5643730000000000 N
   0.2989790000000000    0.2644280000000000    0.2353620000000000 N
   0.3830010000000000    0.9282640000000000    0.8940200000000000 N
   0.1169990000000000    0.4282640000000000    0.3940200000000000 N
   0.6225570000000000    0.6045360000000000    0.4356270000000000 N
   0.0029610000000000    0.1485280000000000    0.5544060000000000 N
   0.8020320000000000    0.7394090000000000    0.2278270000000000 N
   0.1979680000000000    0.2605910000000000    0.7721730000000000 N
   0.9961940000000000    0.5509630000000000    0.9022050000000000 N
   0.6169990000000000    0.0717360000000000    0.1059800000000000 N
   0.0038060000000000    0.4490370000000000    0.0977950000000000 N
   0.8830010000000000    0.5717360000000000    0.6059800000000000 N
   0.1225570000000000    0.8954640000000000    0.0643730000000000 N
   0.5029610000000000    0.3514720000000000    0.9455940000000000 N
   0.6979680000000000    0.2394090000000000    0.7278270000000000 N
   0.8774430000000000    0.1045360000000000    0.9356270000000000 N
   0.4961940000000000    0.9490370000000000    0.5977950000000000 N
   0.9970390000000000    0.8514720000000000    0.4455940000000000 N
   0.5038060000000000    0.0509630000000000    0.4022050000000000 N
   0.7989790000000000    0.2355720000000000    0.2646380000000000 N
   0.2010210000000000    0.7644280000000000    0.7353620000000000 N
   0.4970390000000000    0.6485280000000000    0.0544060000000000 N
   0.7010210000000000    0.7355720000000000    0.7646380000000000 N
   0.3020320000000000    0.7605910000000000    0.2721730000000000 N
   0.7038190000000000    0.7452110000000000    0.7141510000000000 O
   0.3616980000000000    0.0289660000000000    0.4298440000000000 O
   0.8624080000000000    0.8930770000000000    0.4706100000000000 O
   0.3967560000000000    0.6540810000000000    0.2995510000000000 O
   0.4020440000000000    0.8242100000000000    0.5901790000000000 O
   0.7575290000000000    0.5482680000000000    0.4566340000000000 O
   0.8890470000000000    0.2489050000000000    0.5330700000000000 O
   0.4252920000000000    0.4247390000000000    0.6126700000000000 O
   0.0979560000000000    0.3242100000000000    0.0901790000000000 O
   0.3624080000000000    0.6069230000000000    0.0293900000000000 O
   0.4668420000000000    0.7950270000000000    0.8993510000000000 O
   0.9809150000000000    0.2029740000000000    0.9637190000000000 O
   0.2401650000000000    0.9478650000000000    0.9212970000000000 O
   0.2598350000000000    0.4478650000000000    0.4212970000000000 O
   0.6079800000000000    0.6251420000000000    0.7905330000000000 O
   0.5708680000000000    0.9494250000000000    0.1368540000000000 O
   0.3890470000000000    0.2510950000000000    0.9669300000000000 O
   0.3002710000000000    0.7691920000000000    0.2222560000000000 O
   0.4809150000000000    0.2970260000000000    0.5362810000000000 O
   0.6109530000000000    0.7489050000000000    0.0330700000000000 O
   0.5747080000000000    0.5752610000000000    0.3873300000000000 O
   0.8920200000000000    0.1251420000000000    0.2905330000000000 O
   0.5407690000000001    0.9380430000000000    0.3677130000000000 O
   0.9291320000000000    0.4494250000000000    0.6368540000000000 O
   0.5190850000000000    0.7029740000000000    0.4637190000000000 O
   0.0331580000000000    0.2950270000000000    0.3993510000000000 O
   0.7401650000000000    0.5521350000000000    0.5787030000000000 O
   0.2961810000000000    0.2547890000000000    0.2858490000000000 O
   0.6997290000000000    0.2308080000000000    0.7777440000000000 O
   0.0407690000000000    0.5619570000000000    0.1322870000000000 O
   0.0747080000000000    0.9247390000000000    0.1126700000000000 O
   0.4592310000000000    0.0619570000000000    0.6322870000000000 O
   0.0708680000000000    0.5505750000000000    0.3631460000000000 O
   0.5285570000000001    0.5933659999999999    0.1026080000000000 O
   0.7920110000000000    0.1411180000000000    0.6979930000000000 O
   0.2920110000000000    0.3588820000000000    0.8020070000000000 O
   0.7598350000000000    0.0521350000000000    0.0787030000000000 O
   0.9668420000000000    0.7049730000000000    0.6006490000000000 O
   0.7079890000000000    0.6411180000000000    0.1979930000000000 O
   0.2098040000000000    0.1650080000000000    0.2052660000000000 O
   0.2079890000000000    0.8588820000000000    0.3020070000000000 O
   0.1375920000000000    0.1069230000000000    0.5293900000000000 O
   0.6375920000000000    0.3930770000000000    0.9706100000000000 O
   0.2901960000000000    0.6650080000000000    0.7052659999999999 O
   0.0285570000000000    0.9066340000000001    0.3973920000000000 O
   0.9592309999999999    0.4380430000000000    0.8677130000000000 O
   0.7098040000000000    0.3349920000000000    0.2947340000000000 O
   0.5979560000000000    0.1757900000000000    0.4098210000000000 O
   0.9020440000000000    0.6757900000000000    0.9098210000000000 O
   0.1079800000000000    0.8748580000000000    0.7094670000000000 O
   0.8616980000000000    0.4710340000000000    0.0701560000000000 O
   0.2424710000000000    0.4517320000000000    0.5433660000000000 O
   0.0190850000000000    0.7970260000000000    0.0362810000000000 O
   0.4291320000000000    0.0505750000000000    0.8631460000000000 O
   0.6032440000000000    0.3459190000000000    0.7004490000000000 O
   0.9714429999999999    0.0933660000000000    0.6026080000000000 O
   0.7961810000000000    0.2452110000000000    0.2141510000000000 O
   0.5331580000000000    0.2049730000000000    0.1006490000000000 O
   0.1383020000000000    0.5289660000000000    0.9298440000000000 O
   0.7901960000000000    0.8349920000000000    0.7947340000000001 O
   0.4714430000000000    0.4066340000000000    0.8973920000000000 O
   0.8967560000000000    0.8459190000000000    0.2004490000000000 O
   0.9252920000000000    0.0752610000000000    0.8873300000000000 O
   0.6383020000000000    0.9710340000000000    0.5701560000000000 O
   0.7424710000000000    0.0482680000000000    0.9566340000000000 O
   0.8002710000000000    0.7308080000000000    0.2777440000000000 O
   0.2575290000000000    0.9517320000000000    0.0433660000000000 O
   0.1997290000000000    0.2691920000000000    0.7222560000000000 O
   0.3920200000000000    0.3748580000000000    0.2094670000000000 O
   0.1032440000000000    0.1540810000000000    0.7995510000000000 O
   0.1109530000000000    0.7510950000000000    0.4669300000000000 O
   0.2038190000000000    0.7547890000000000    0.7858490000000000 O
