Li2 Pr2 S4 O16
1.0
   7.7686120000000001    0.0000000000000000    0.0000000000000000
   0.0000000000000000    7.7643709999999997    0.0000000000000000
   0.0000000000000000    0.0000000000000000    6.2056430000000002
Li Pr S O
2 2 4 16
direct
   0.5000000000000000    0.5000000000000000    0.0087670000000000 Li
   0.0000000000000000    0.0000000000000000    0.5087670000000000 Li
   0.5000000000000000    0.5000000000000000    0.5087710000000000 Pr
   0.0000000000000000    0.0000000000000000    0.0087710000000000 Pr
   0.7797440000000000    0.2200660000000000    0.5087469999999999 S
   0.2202560000000000    0.7799340000000000    0.5087469999999999 S
   0.7202560000000000    0.7200660000000000    0.0087470000000000 S
   0.2797440000000000    0.2799340000000000    0.0087470000000000 S
   0.7984210000000000    0.3979210000000000    0.5908550000000000 O
   0.2015790000000000    0.6020790000000000    0.5908550000000000 O
   0.7015790000000000    0.8979210000000000    0.0908560000000000 O
   0.2984210000000000    0.1020790000000000    0.0908560000000000 O
   0.8217550000000000    0.0923580000000000    0.6855869999999999 O
   0.1782450000000000    0.9076419999999999    0.6855869999999999 O
   0.6782450000000000    0.5923580000000001    0.1855870000000000 O
   0.3217550000000000    0.4076420000000000    0.1855870000000000 O
   0.6019460000000000    0.2014280000000000    0.4267020000000000 O
   0.3980540000000000    0.7985730000000000    0.4267020000000000 O
   0.8980540000000000    0.7014270000000000    0.9267020000000000 O
   0.1019460000000000    0.2985730000000000    0.9267020000000000 O
   0.9073550000000000    0.1780740000000000    0.3318390000000000 O
   0.0926450000000000    0.8219260000000000    0.3318390000000000 O
   0.5926450000000000    0.6780740000000000    0.8318390000000000 O
   0.4073550000000000    0.3219260000000000    0.8318390000000000 O
