Cs9 Li12 B21 O42
1.0
   3.5144750000000000   -6.0872500000000000    0.0000000000000000
   3.5144750000000000    6.0872500000000000    0.0000000000000000
   0.0000000000000000    0.0000000000000000   27.1827660000000009
Cs Li B O
9 12 21 42
direct
   0.5277110000000000    0.9953840000000000    0.0579900000000000 Cs
   0.4676730000000000    0.4722890000000000    0.7246570000000000 Cs
   0.0046160000000000    0.5323270000000000    0.3913230000000000 Cs
   0.4722890000000000    0.4676730000000000    0.2753430000000000 Cs
   0.9953840000000000    0.5277110000000000    0.9420100000000000 Cs
   0.5323270000000000    0.0046160000000000    0.6086770000000000 Cs
   0.0000000000000000    0.9221840000000000    0.1666670000000000 Cs
   0.9221840000000000    0.0000000000000000    0.8333330000000000 Cs
   0.0778160000000000    0.0778160000000000    0.5000000000000000 Cs
   0.6396740000000000    0.3917480000000000    0.1446280000000000 Li
   0.7520730000000000    0.3603260000000000    0.8112950000000000 Li
   0.6082520000000000    0.2479270000000000    0.4779610000000000 Li
   0.3603260000000000    0.7520730000000000    0.1887050000000000 Li
   0.3917480000000000    0.6396740000000000    0.8553720000000000 Li
   0.2479270000000000    0.6082520000000000    0.5220390000000000 Li
   0.6549610000000000    0.5373869999999999    0.0444100000000000 Li
   0.8824260000000000    0.3450390000000000    0.7110760000000000 Li
   0.4626130000000000    0.1175740000000000    0.3777430000000000 Li
   0.3450390000000000    0.8824260000000000    0.2889240000000000 Li
   0.5373869999999999    0.6549610000000000    0.9555900000000001 Li
   0.1175740000000000    0.4626130000000000    0.6222569999999999 Li
   0.0297290000000000    0.4888710000000000    0.0846080000000000 B
   0.4591420000000000    0.9702710000000000    0.7512750000000000 B
   0.5111289999999999    0.5408579999999999    0.4179410000000000 B
   0.9702710000000000    0.4591420000000000    0.2487250000000000 B
   0.4888710000000000    0.0297290000000000    0.9153920000000000 B
   0.5408579999999999    0.5111289999999999    0.5820590000000000 B
   0.3548210000000000    0.5041460000000000    0.1255030000000000 B
   0.1493250000000000    0.6451789999999999    0.7921690000000000 B
   0.4958540000000000    0.8506750000000000    0.4588360000000000 B
   0.6451789999999999    0.1493250000000000    0.2078310000000000 B
   0.5041460000000000    0.3548210000000000    0.8744970000000000 B
   0.8506750000000000    0.4958540000000000    0.5411640000000000 B
   0.2221140000000000    0.3086890000000000    0.0425680000000000 B
   0.0865750000000000    0.7778860000000000    0.7092340000000000 B
   0.6913110000000000    0.9134250000000000    0.3759010000000000 B
   0.7778860000000000    0.0865750000000000    0.2907660000000000 B
   0.3086890000000000    0.2221140000000000    0.9574319999999999 B
   0.9134250000000000    0.6913110000000000    0.6240990000000000 B
   0.9665330000000000    0.9665330000000000    0.0000000000000000 B
   0.0000000000000000    0.0334670000000000    0.6666670000000000 B
   0.0334670000000000    0.0000000000000000    0.3333330000000000 B
   0.0696340000000000    0.0704660000000000    0.0443910000000000 O
   0.0008320000000000    0.9303660000000000    0.7110580000000000 O
   0.9295340000000000    0.9991679999999999    0.3777240000000000 O
   0.9303660000000000    0.0008320000000000    0.2889420000000000 O
   0.0704660000000000    0.0696340000000000    0.9556090000000000 O
   0.9991679999999999    0.9295340000000000    0.6222760000000001 O
   0.8426399999999999    0.4932740000000000    0.0892510000000000 O
   0.6506340000000000    0.1573600000000000    0.7559170000000000 O
   0.5067260000000000    0.3493660000000000    0.4225840000000000 O
   0.1573600000000000    0.6506340000000000    0.2440830000000000 O
   0.4932740000000000    0.8426399999999999    0.9107490000000000 O
   0.3493660000000000    0.5067260000000000    0.5774160000000000 O
   0.7753730000000000    0.7753730000000000    0.0000000000000000 O
   0.0000000000000000    0.2246270000000000    0.6666670000000000 O
   0.2246270000000000    0.0000000000000000    0.3333330000000000 O
   0.3696840000000000    0.3806040000000000    0.0871100000000000 O
   0.0109200000000000    0.6303160000000000    0.7537770000000000 O
   0.6193959999999999    0.9890800000000000    0.4204440000000000 O
   0.6303160000000000    0.0109200000000000    0.2462230000000000 O
   0.3806040000000000    0.3696840000000000    0.9128900000000000 O
   0.9890800000000000    0.6193959999999999    0.5795560000000000 O
   0.0902700000000000    0.4223740000000000    0.0420250000000000 O
   0.3321040000000000    0.9097300000000000    0.7086920000000000 O
   0.5776260000000000    0.6678960000000000    0.3753590000000000 O
   0.9097300000000000    0.3321040000000000    0.2913080000000000 O
   0.4223740000000000    0.0902700000000000    0.9579750000000000 O
   0.6678960000000000    0.5776260000000000    0.6246410000000000 O
   0.5027720000000000    0.0769760000000000    0.1701900000000000 O
   0.5742030000000000    0.4972280000000000    0.8368570000000000 O
   0.9230240000000000    0.4257970000000000    0.5035230000000001 O
   0.4972280000000000    0.5742030000000000    0.1631430000000000 O
   0.0769760000000000    0.5027720000000000    0.8298100000000000 O
   0.4257970000000000    0.9230240000000000    0.4964770000000000 O
   0.1855290000000000    0.5584370000000000    0.1242630000000000 O
   0.3729080000000000    0.8144709999999999    0.7909300000000000 O
   0.4415630000000000    0.6270920000000000    0.4575970000000000 O
   0.8144709999999999    0.3729080000000000    0.2090700000000000 O
   0.5584370000000000    0.1855290000000000    0.8757370000000000 O
   0.6270920000000000    0.4415630000000000    0.5424030000000000 O
   0.3711340000000000    0.3711340000000000    0.0000000000000000 O
   0.0000000000000000    0.6288660000000000    0.6666670000000000 O
   0.6288660000000000    0.0000000000000000    0.3333330000000000 O
