Li4 Al4 S12 Cl16 O24
1.0
   9.7596959999999999    0.0000000000000000    0.0000000000000000
   0.0000000000000000   10.2486090000000001    0.0000000000000000
   0.0000000000000000    0.0000000000000000   13.6971340000000001
Li Al S Cl O
4 4 12 16 24
direct
   0.3754140000000000    0.7500000000000000    0.2459110000000000 Li
   0.8754140000000000    0.7500000000000000    0.2540890000000000 Li
   0.6245860000000000    0.2500000000000000    0.7540890000000000 Li
   0.1245860000000000    0.2500000000000000    0.7459110000000000 Li
   0.7612240000000000    0.7500000000000000    0.8712320000000000 Al
   0.2387760000000000    0.2500000000000000    0.1287680000000000 Al
   0.2612240000000000    0.7500000000000000    0.6287680000000000 Al
   0.7387760000000000    0.2500000000000000    0.3712320000000000 Al
   0.8724970000000000    0.0426860000000000    0.6460300000000000 S
   0.6275030000000000    0.5426860000000000    0.1460300000000000 S
   0.3752310000000000    0.2500000000000000    0.5656650000000000 S
   0.6247690000000000    0.7500000000000000    0.4343350000000000 S
   0.3724970000000000    0.4573140000000000    0.8539700000000000 S
   0.3724970000000000    0.0426860000000000    0.8539700000000000 S
   0.1275030000000000    0.9573140000000000    0.3539700000000000 S
   0.6275030000000000    0.9573140000000000    0.1460300000000000 S
   0.1275030000000000    0.5426860000000000    0.3539700000000000 S
   0.1247690000000000    0.7500000000000000    0.0656650000000000 S
   0.8752310000000000    0.2500000000000000    0.9343350000000000 S
   0.8724970000000000    0.4573140000000000    0.6460300000000000 S
   0.8765810000000001    0.5780530000000000    0.9094530000000000 Cl
   0.2190230000000000    0.7500000000000000    0.7831910000000000 Cl
   0.2809770000000000    0.2500000000000000    0.2831910000000000 Cl
   0.0721480000000000    0.7500000000000000    0.5445630000000000 Cl
   0.7190230000000000    0.7500000000000000    0.7168090000000000 Cl
   0.1234190000000000    0.0780530000000000    0.0905470000000000 Cl
   0.6234189999999999    0.0780530000000000    0.4094530000000000 Cl
   0.7809770000000000    0.2500000000000000    0.2168090000000000 Cl
   0.8765810000000001    0.9219470000000000    0.9094530000000000 Cl
   0.9278520000000000    0.2500000000000000    0.4554370000000000 Cl
   0.6234189999999999    0.4219470000000000    0.4094530000000000 Cl
   0.5721480000000000    0.7500000000000000    0.9554370000000000 Cl
   0.1234190000000000    0.4219470000000000    0.0905470000000000 Cl
   0.3765810000000000    0.9219470000000000    0.5905470000000000 Cl
   0.4278520000000000    0.2500000000000000    0.0445630000000000 Cl
   0.3765810000000000    0.5780530000000000    0.5905470000000000 Cl
   0.7587820000000000    0.7500000000000000    0.3881540000000000 O
   0.2587820000000000    0.7500000000000000    0.1118460000000000 O
   0.9965230000000000    0.5916240000000000    0.3194000000000000 O
   0.0064400000000000    0.7500000000000000    0.1294670000000000 O
   0.2503980000000000    0.1061850000000000    0.8167460000000000 O
   0.4935600000000000    0.2500000000000000    0.6294670000000000 O
   0.5034770000000000    0.4083760000000000    0.8194000000000000 O
   0.4965230000000000    0.5916240000000000    0.1806000000000000 O
   0.0034770000000000    0.0916240000000000    0.6806000000000000 O
   0.2496020000000000    0.8938150000000000    0.3167460000000000 O
   0.9935600000000000    0.2500000000000000    0.8705330000000000 O
   0.0034770000000000    0.4083760000000000    0.6806000000000000 O
   0.5064400000000000    0.7500000000000000    0.3705330000000000 O
   0.7496020000000000    0.8938150000000000    0.1832540000000000 O
   0.2412180000000000    0.2500000000000000    0.6118460000000000 O
   0.7496020000000000    0.6061850000000000    0.1832540000000000 O
   0.5034770000000000    0.0916240000000000    0.8194000000000000 O
   0.4965230000000000    0.9083760000000000    0.1806000000000000 O
   0.7503980000000000    0.1061850000000000    0.6832540000000000 O
   0.7503980000000000    0.3938150000000000    0.6832540000000000 O
   0.7412180000000000    0.2500000000000000    0.8881540000000000 O
   0.2503980000000000    0.3938150000000000    0.8167460000000000 O
   0.2496020000000000    0.6061850000000000    0.3167460000000000 O
   0.9965230000000000    0.9083760000000000    0.3194000000000000 O
