pymatgen with grid density = 1071 / number of atoms
0
Gamma
7 2 2
