Li8 B20 Sb4 O40
1.0
  16.3103200000000008    0.0000000000000000    0.0000000000000000
   0.0000000000000000    6.9555119999999997    0.0000000000000000
   0.0000000000000000    0.6919840000000000    7.0739879999999999
Li B Sb O
8 20 4 40
direct
   0.8430569999999999    0.9680490000000000    0.1059420000000000 Li
   0.6569430000000001    0.4680490000000000    0.1059420000000000 Li
   0.0912400000000000    0.4156580000000000    0.3236520000000000 Li
   0.4087600000000000    0.9156580000000000    0.3236520000000000 Li
   0.5912400000000000    0.0843420000000000    0.6763479999999999 Li
   0.9087600000000000    0.5843420000000000    0.6763479999999999 Li
   0.3430570000000000    0.5319510000000000    0.8940580000000000 Li
   0.1569430000000000    0.0319510000000000    0.8940580000000000 Li
   0.9749200000000000    0.1036240000000000    0.1977030000000000 B
   0.5250800000000000    0.6036240000000000    0.1977030000000000 B
   0.2360370000000000    0.5232350000000000    0.2251010000000000 B
   0.2639630000000000    0.0232350000000000    0.2251010000000000 B
   0.4832810000000000    0.2638140000000000    0.2599260000000000 B
   0.0167190000000000    0.7638140000000000    0.2599260000000000 B
   0.3844670000000000    0.5249880000000000    0.3172110000000000 B
   0.1155330000000000    0.0249880000000000    0.3172110000000000 B
   0.7270180000000001    0.4247940000000000    0.4528700000000000 B
   0.7729819999999999    0.9247940000000000    0.4528700000000000 B
   0.2270180000000000    0.0752060000000000    0.5471300000000000 B
   0.2729820000000000    0.5752060000000000    0.5471300000000000 B
   0.8844670000000000    0.9750120000000000    0.6827890000000000 B
   0.6155330000000000    0.4750120000000000    0.6827890000000000 B
   0.9832810000000000    0.2361860000000000    0.7400740000000000 B
   0.5167190000000000    0.7361860000000000    0.7400740000000000 B
   0.7360370000000001    0.9767650000000000    0.7748990000000000 B
   0.7639629999999999    0.4767650000000000    0.7748990000000000 B
   0.4749200000000000    0.3963760000000000    0.8022970000000000 B
   0.0250800000000000    0.8963760000000000    0.8022970000000000 B
   0.8669860000000000    0.4906680000000000    0.1683520000000000 Sb
   0.6330140000000000    0.9906680000000000    0.1683520000000000 Sb
   0.3669860000000000    0.0093320000000000    0.8316480000000001 Sb
   0.1330140000000000    0.5093320000000000    0.8316480000000001 Sb
   0.1703270000000000    0.5119230000000000    0.1080900000000000 O
   0.3296730000000000    0.0119230000000000    0.1080900000000000 O
   0.9059600000000000    0.2161870000000000    0.1561380000000000 O
   0.5940400000000000    0.7161870000000000    0.1561380000000000 O
   0.1836900000000000    0.0384930000000000    0.1683890000000000 O
   0.5386320000000000    0.4072950000000000    0.1756900000000000 O
   0.3163100000000000    0.5384930000000000    0.1683890000000000 O
   0.9613680000000000    0.9072950000000000    0.1756900000000000 O
   0.5002970000000000    0.0741850000000000    0.2549960000000000 O
   0.9997030000000000    0.5741849999999999    0.2549960000000000 O
   0.7503220000000000    0.3820710000000000    0.2753960000000000 O
   0.0495770000000000    0.1655740000000000    0.2514650000000000 O
   0.7496780000000000    0.8820710000000000    0.2753960000000000 O
   0.4504230000000000    0.6655740000000000    0.2514650000000000 O
   0.4145460000000000    0.3285320000000000    0.3451370000000000 O
   0.0854540000000000    0.8285320000000000    0.3451370000000000 O
   0.2147910000000000    0.5146269999999999    0.4187110000000000 O
   0.2852090000000000    0.0146270000000000    0.4187110000000000 O
   0.6472300000000000    0.4071090000000000    0.5076400000000000 O
   0.1472300000000000    0.0928910000000000    0.4923600000000000 O
   0.8527700000000000    0.9071090000000001    0.5076400000000000 O
   0.3527700000000000    0.5928909999999999    0.4923600000000000 O
   0.7147910000000000    0.9853730000000001    0.5812889999999999 O
   0.7852090000000000    0.4853730000000000    0.5812889999999999 O
   0.9145460000000000    0.1714680000000000    0.6548630000000000 O
   0.5854540000000000    0.6714680000000000    0.6548630000000000 O
   0.5495770000000000    0.3344260000000000    0.7485350000000000 O
   0.2503220000000000    0.1179290000000000    0.7246040000000000 O
   0.9504230000000000    0.8344260000000000    0.7485350000000000 O
   0.2496780000000000    0.6179290000000000    0.7246040000000000 O
   0.0002970000000000    0.4258150000000000    0.7450040000000000 O
   0.4997030000000000    0.9258150000000001    0.7450040000000000 O
   0.0386320000000000    0.0927050000000000    0.8243100000000000 O
   0.6836900000000000    0.4615070000000000    0.8316110000000000 O
   0.4613680000000000    0.5927050000000000    0.8243100000000000 O
   0.8163100000000000    0.9615070000000000    0.8316110000000000 O
   0.4059600000000000    0.2838130000000000    0.8438620000000000 O
   0.0940400000000000    0.7838130000000000    0.8438620000000000 O
   0.6703270000000000    0.9880770000000000    0.8919100000000000 O
   0.8296730000000000    0.4880770000000000    0.8919100000000000 O
