ALGO = Fast
EDIFF = 0.006
ENCUT = 520
IBRION = 2
ISIF = 3
ISMEAR = -5
ISPIN = 2
LASPH = True
LORBIT = 11
LREAL = Auto
LWAVE = False
MAGMOM = 16*-0.001 8*0.004 8*0.0 8*0.002 8*1.879 1*-0.029 1*-0.03 1*-0.029 1*-0.03 1*-0.029 1*-0.03 1*-0.029 1*-0.03 8*-0.045 2*-0.024 1*-0.023 3*-0.024 1*-0.023 1*-0.024 8*-0.015 1*0.046 1*0.047 1*0.046 1*0.047 1*0.046 1*0.047 1*0.046 1*0.047 8*0.007 2*0.009 1*0.01 3*0.009 1*0.01 1*0.009 1*-0.025 3*-0.024 1*-0.025 3*-0.024 8*-0.012
NELM = 100
NSW = 99
PREC = Accurate
SIGMA = 0.05
