Li16 P24 N8 O72
1.0
  10.7133559999999992    0.0000000000000000    0.0000000000000000
   0.0000000000000000   12.4649020000000004    0.0000000000000000
   0.0000000000000000    0.0000000000000000   13.2415360000000000
Li P N O
16 24 8 72
direct
   0.0825970000000000    0.6674920000000000    0.1811750000000000 Li
   0.9174030000000000    0.1674920000000000    0.3188250000000000 Li
   0.4174030000000000    0.3325080000000000    0.6811750000000000 Li
   0.5825970000000000    0.8325080000000000    0.8188250000000000 Li
   0.9174030000000000    0.3325080000000000    0.8188250000000000 Li
   0.0825970000000000    0.8325080000000000    0.6811750000000000 Li
   0.5825970000000000    0.6674920000000000    0.3188250000000000 Li
   0.4174030000000000    0.1674920000000000    0.1811750000000000 Li
   0.4066540000000000    0.8326850000000000    0.3230750000000000 Li
   0.5933460000000000    0.3326850000000000    0.1769250000000000 Li
   0.0933460000000000    0.1673150000000000    0.8230750000000000 Li
   0.9066540000000000    0.6673150000000000    0.6769250000000000 Li
   0.5933460000000000    0.1673150000000000    0.6769250000000000 Li
   0.4066540000000000    0.6673150000000000    0.8230750000000000 Li
   0.9066540000000000    0.8326850000000000    0.1769250000000000 Li
   0.0933460000000000    0.3326850000000000    0.3230750000000000 Li
   0.3118210000000000    0.4113350000000000    0.1951750000000000 P
   0.6881790000000000    0.9113350000000000    0.3048250000000000 P
   0.1881790000000000    0.5886650000000000    0.6951750000000000 P
   0.8118210000000000    0.0886650000000000    0.8048250000000000 P
   0.6881790000000000    0.5886650000000000    0.8048250000000000 P
   0.3118210000000000    0.0886650000000000    0.6951750000000000 P
   0.8118210000000000    0.4113350000000000    0.3048250000000000 P
   0.1881790000000000    0.9113350000000000    0.1951750000000000 P
   0.2554030000000000    0.5475970000000000    0.0147770000000000 P
   0.7445970000000000    0.0475970000000000    0.4852230000000000 P
   0.2445970000000000    0.4524030000000000    0.5147770000000000 P
   0.7554030000000000    0.9524030000000000    0.9852230000000000 P
   0.7445970000000000    0.4524030000000000    0.9852230000000000 P
   0.2554030000000000    0.9524030000000000    0.5147770000000000 P
   0.7554030000000000    0.5475970000000000    0.4852230000000000 P
   0.2445970000000000    0.0475970000000000    0.0147770000000000 P
   0.2971320000000000    0.5923690000000000    0.3406090000000000 P
   0.7028680000000000    0.0923690000000000    0.1593910000000000 P
   0.2028680000000000    0.4076310000000000    0.8406090000000001 P
   0.7971320000000000    0.9076310000000000    0.6593909999999999 P
   0.7028680000000000    0.4076310000000000    0.6593909999999999 P
   0.2971320000000000    0.9076310000000000    0.8406090000000001 P
   0.7971320000000000    0.5923690000000000    0.1593910000000000 P
   0.2028680000000000    0.0923690000000000    0.3406090000000000 P
   0.9952240000000000    0.7582610000000000    0.4284290000000000 N
   0.0047760000000000    0.2582610000000000    0.0715710000000000 N
   0.5047760000000000    0.2417390000000000    0.9284289999999999 N
   0.4952240000000000    0.7417390000000000    0.5715710000000001 N
   0.0047760000000000    0.2417390000000000    0.5715710000000001 N
   0.9952240000000000    0.7417390000000000    0.9284289999999999 N
   0.4952240000000000    0.7582610000000000    0.0715710000000000 N
   0.5047760000000000    0.2582610000000000    0.4284290000000000 N
   0.0891380000000000    0.8271570000000000    0.1835660000000000 O
   0.9108619999999999    0.3271570000000000    0.3164340000000000 O
   0.4108620000000000    0.1728430000000000    0.6835660000000000 O
   0.5891380000000001    0.6728430000000000    0.8164340000000000 O
   0.9108619999999999    0.1728430000000000    0.8164340000000000 O
   0.0891380000000000    0.6728430000000000    0.6835660000000000 O
   0.5891380000000001    0.8271570000000000    0.3164340000000000 O
   0.4108620000000000    0.3271570000000000    0.1835660000000000 O
   0.3217620000000000    0.8783310000000000    0.1994990000000000 O
   0.6782380000000000    0.3783310000000000    0.3005010000000000 O
   0.1782380000000000    0.1216690000000000    0.6994990000000000 O
   0.8217620000000000    0.6216690000000000    0.8005010000000000 O
   0.6782380000000000    0.1216690000000000    0.8005010000000000 O
   0.3217620000000000    0.6216690000000000    0.6994990000000000 O
   0.8217620000000000    0.8783310000000000    0.3005010000000000 O
   0.1782380000000000    0.3783310000000000    0.1994990000000000 O
   0.1647380000000000    0.0008010000000000    0.1076130000000000 O
   0.8352619999999999    0.5008010000000001    0.3923870000000000 O
   0.3352620000000000    0.9991989999999999    0.6076130000000000 O
   0.6647380000000001    0.4991990000000000    0.8923870000000000 O
   0.8352619999999999    0.9991989999999999    0.8923870000000000 O
   0.1647380000000000    0.4991990000000000    0.6076130000000000 O
   0.6647380000000001    0.0008010000000000    0.3923870000000000 O
   0.3352620000000000    0.5008010000000001    0.1076130000000000 O
   0.1508430000000000    0.9799790000000000    0.2946190000000000 O
   0.8491570000000001    0.4799790000000000    0.2053810000000000 O
   0.3491570000000000    0.0200210000000000    0.7946190000000000 O
   0.6508429999999999    0.5200210000000000    0.7053810000000000 O
   0.8491570000000001    0.0200210000000000    0.7053810000000000 O
   0.1508430000000000    0.5200210000000000    0.7946190000000000 O
   0.6508429999999999    0.9799790000000000    0.2053810000000000 O
   0.3491570000000000    0.4799790000000000    0.2946190000000000 O
   0.3424730000000000    0.8900800000000000    0.4486780000000000 O
   0.6575270000000000    0.3900800000000000    0.0513220000000000 O
   0.1575270000000000    0.1099200000000000    0.9486780000000000 O
   0.8424730000000000    0.6099200000000000    0.5513220000000000 O
   0.6575270000000000    0.1099200000000000    0.5513220000000000 O
   0.3424730000000000    0.6099200000000000    0.9486780000000000 O
   0.8424730000000000    0.8900800000000000    0.0513220000000000 O
   0.1575270000000000    0.3900800000000000    0.4486780000000000 O
   0.1425790000000000    0.6059180000000000    0.0543980000000000 O
   0.8574210000000000    0.1059180000000000    0.4456020000000000 O
   0.3574210000000000    0.3940820000000000    0.5543979999999999 O
   0.6425790000000000    0.8940820000000000    0.9456020000000001 O
   0.8574210000000000    0.3940820000000000    0.9456020000000001 O
   0.1425790000000000    0.8940820000000000    0.5543979999999999 O
   0.6425790000000000    0.6059180000000000    0.4456020000000000 O
   0.3574210000000000    0.1059180000000000    0.0543980000000000 O
   0.2889860000000000    0.5618130000000000    0.4594980000000000 O
   0.7110140000000000    0.0618130000000000    0.0405020000000000 O
   0.2110140000000000    0.4381870000000000    0.9594980000000000 O
   0.7889860000000000    0.9381870000000000    0.5405020000000000 O
   0.7110140000000000    0.4381870000000000    0.5405020000000000 O
   0.2889860000000000    0.9381870000000000    0.9594980000000000 O
   0.7889860000000000    0.5618130000000000    0.0405020000000000 O
   0.2110140000000000    0.0618130000000000    0.4594980000000000 O
   0.1698940000000000    0.6182690000000000    0.3014340000000000 O
   0.8301060000000000    0.1182690000000000    0.1985660000000000 O
   0.3301060000000000    0.3817310000000000    0.8014340000000000 O
   0.6698940000000000    0.8817310000000000    0.6985660000000000 O
   0.8301060000000000    0.3817310000000000    0.6985660000000000 O
   0.1698940000000000    0.8817310000000000    0.8014340000000000 O
   0.6698940000000000    0.6182690000000000    0.1985660000000000 O
   0.3301060000000000    0.1182690000000000    0.3014340000000000 O
   0.3982480000000000    0.6743500000000000    0.3293170000000000 O
   0.6017520000000000    0.1743500000000000    0.1706830000000000 O
   0.1017520000000000    0.3256500000000000    0.8293170000000000 O
   0.8982480000000000    0.8256500000000000    0.6706830000000000 O
   0.6017520000000000    0.3256500000000000    0.6706830000000000 O
   0.3982480000000000    0.8256500000000000    0.8293170000000000 O
   0.8982480000000000    0.6743500000000000    0.1706830000000000 O
   0.1017520000000000    0.1743500000000000    0.3293170000000000 O
