Li12 Sn10 P16 O56
1.0
  -9.6267329999999998    0.0000000000000000    0.0000000000000000
  -4.4435750000000001  -10.5197740000000000    0.0000000000000000
  -3.5709130000000000   -1.7121949999999999   13.0656119999999998
Li Sn P O
12 10 16 56
direct
   0.0399940000000000    0.8715920000000000    0.5755120000000000 Li
   0.4379390000000000    0.6540170000000000    0.6720390000000001 Li
   0.0000000000000000    0.5000000000000000    0.5000000000000000 Li
   0.5620610000000000    0.3459830000000000    0.3279610000000000 Li
   0.9600060000000000    0.1284080000000000    0.4244880000000000 Li
   0.1747370000000000    0.0572310000000000    0.2475740000000000 Li
   0.0504800000000000    0.8728129999999999    0.0510270000000000 Li
   0.4189370000000000    0.7042730000000000    0.1559470000000000 Li
   0.0000000000000000    0.5000000000000000    0.0000000000000000 Li
   0.5810630000000000    0.2957270000000000    0.8440530000000001 Li
   0.9495200000000000    0.1271870000000000    0.9489730000000000 Li
   0.8252630000000000    0.9427690000000000    0.7524260000000000 Li
   0.5968210000000000    0.2940820000000000    0.5970800000000001 Sn
   0.1941820000000000    0.0020760000000000    0.7521230000000000 Sn
   0.2602090000000000    0.2677620000000000    0.5712130000000000 Sn
   0.7397910000000000    0.7322380000000001    0.4287870000000000 Sn
   0.8058180000000000    0.9979240000000000    0.2478770000000000 Sn
   0.4031790000000000    0.7059180000000000    0.4029200000000000 Sn
   0.5864440000000000    0.3055270000000000    0.1009690000000000 Sn
   0.2656970000000000    0.2580360000000000    0.0782800000000000 Sn
   0.7343030000000000    0.7419640000000000    0.9217200000000000 Sn
   0.4135560000000000    0.6944730000000000    0.8990310000000000 Sn
   0.2243200000000000    0.5812910000000000    0.5954090000000000 P
   0.6793200000000000    0.7899650000000000    0.6593340000000000 P
   0.8972390000000000    0.2975990000000000    0.7172110000000000 P
   0.7180760000000000    0.0078950000000000    0.5137270000000000 P
   0.2819240000000000    0.9921050000000000    0.4862730000000000 P
   0.1027610000000000    0.7024010000000001    0.2827890000000000 P
   0.3206800000000000    0.2100350000000000    0.3406660000000000 P
   0.7756800000000000    0.4187090000000000    0.4045910000000000 P
   0.2251170000000000    0.5803940000000000    0.0942550000000000 P
   0.6647710000000000    0.8125150000000000    0.1579190000000000 P
   0.8943710000000000    0.3009110000000000    0.2169570000000000 P
   0.7136850000000000    0.0150260000000000    0.9950390000000000 P
   0.2863150000000000    0.9849740000000000    0.0049610000000000 P
   0.1056290000000000    0.6990890000000000    0.7830430000000000 P
   0.3352290000000000    0.1874850000000000    0.8420810000000000 P
   0.7748830000000000    0.4196060000000000    0.9057450000000000 P
   0.0460490000000000    0.8358630000000000    0.7267230000000000 O
   0.1173710000000000    0.6002420000000001    0.7079170000000000 O
   0.2586260000000000    0.1635160000000000    0.7650709999999999 O
   0.3942740000000000    0.5362870000000000    0.6049890000000000 O
   0.5405340000000000    0.7483390000000000    0.7055770000000000 O
   0.8406640000000000    0.0046990000000000    0.5680190000000001 O
   0.6112170000000000    0.9320929999999999    0.5917480000000001 O
   0.7313539999999999    0.3259190000000000    0.7070980000000000 O
   0.1833530000000000    0.7130490000000000    0.5283440000000000 O
   0.1816490000000000    0.4878740000000000    0.5547930000000000 O
   0.6117510000000000    0.1437380000000000    0.4852440000000000 O
   0.0020650000000000    0.3337650000000000    0.6197530000000000 O
   0.7988540000000000    0.7024110000000000    0.5807410000000000 O
   0.2077080000000000    0.0680730000000000    0.5810940000000000 O
   0.7922920000000000    0.9319269999999999    0.4189060000000000 O
   0.2011460000000000    0.2975890000000000    0.4192590000000000 O
   0.9979350000000000    0.6662350000000000    0.3802470000000000 O
   0.3882490000000000    0.8562620000000000    0.5147560000000000 O
   0.8183510000000001    0.5121260000000000    0.4452070000000000 O
   0.8166470000000000    0.2869510000000000    0.4716560000000000 O
   0.2686460000000000    0.6740810000000000    0.2929020000000000 O
   0.3887830000000000    0.0679070000000000    0.4082520000000000 O
   0.1593360000000000    0.9953010000000000    0.4319810000000000 O
   0.4594660000000000    0.2516610000000000    0.2944230000000000 O
   0.0355930000000000    0.8428160000000000    0.2305210000000000 O
   0.6057260000000000    0.4637130000000000    0.3950110000000000 O
   0.7413740000000000    0.8364840000000000    0.2349290000000000 O
   0.1141140000000000    0.6080400000000000    0.2051480000000000 O
   0.8826290000000000    0.3997580000000000    0.2920830000000000 O
   0.2501850000000000    0.1864620000000000    0.2627280000000000 O
   0.3947740000000000    0.5342630000000000    0.1064540000000000 O
   0.9539510000000000    0.1641370000000000    0.2732770000000000 O
   0.5218590000000000    0.7802170000000000    0.2131110000000000 O
   0.8518350000000000    0.0008040000000000    0.0400220000000000 O
   0.6044320000000000    0.9523770000000000    0.0868190000000000 O
   0.7273170000000000    0.3370260000000000    0.2030900000000000 O
   0.1907840000000000    0.7097869999999999    0.0240810000000000 O
   0.1791800000000000    0.4876440000000000    0.0568230000000000 O
   0.6160290000000000    0.1554000000000000    0.9707670000000000 O
   0.0037110000000000    0.3297990000000000    0.1192040000000000 O
   0.7802860000000000    0.7174850000000000    0.0854780000000000 O
   0.2348580000000000    0.0603940000000000    0.0966680000000000 O
   0.7651420000000000    0.9396050000000000    0.9033320000000000 O
   0.2197140000000000    0.2825150000000000    0.9145219999999999 O
   0.9962890000000000    0.6702010000000000    0.8807960000000000 O
   0.3839710000000000    0.8446000000000000    0.0292330000000000 O
   0.8208200000000000    0.5123560000000000    0.9431770000000000 O
   0.8092160000000000    0.2902130000000000    0.9759190000000000 O
   0.2726830000000000    0.6629740000000000    0.7969100000000000 O
   0.3955680000000000    0.0476230000000000    0.9131810000000000 O
   0.1481650000000000    0.9991960000000000    0.9599780000000000 O
   0.4781410000000000    0.2197830000000000    0.7868889999999999 O
   0.6052260000000000    0.4657370000000000    0.8935460000000000 O
   0.7498150000000000    0.8135380000000000    0.7372720000000000 O
   0.8858860000000000    0.3919600000000000    0.7948520000000000 O
   0.9644070000000000    0.1571840000000000    0.7694790000000000 O
