Rb8 Li4 Nd4 B8 O24
1.0
   7.0988452899999999   -0.0000000000000000    0.0000000000000000
  -0.0000000000000000    9.7067785700000009    0.0000000000000000
   0.0000000000000000    0.0000000000000000   10.1234985700000006
Rb Li Nd B O
8 4 4 8 24
direct
   0.2787447600000000    0.4160018300000000    0.9440300200000000 Rb
   0.7212552400000000    0.5839981700000000    0.4440300200000000 Rb
   0.2787447600000000    0.0839981700000000    0.0559699800000000 Rb
   0.7212552400000000    0.9160018300000000    0.5559699800000000 Rb
   0.7212552400000000    0.5839981700000000    0.0559699800000000 Rb
   0.2787447600000000    0.4160018300000000    0.5559699800000000 Rb
   0.7212552400000000    0.9160018300000000    0.9440300200000000 Rb
   0.2787447600000000    0.0839981700000000    0.4440300200000000 Rb
   0.4492636900000000    0.1512739800000000    0.7500000000000000 Li
   0.5507363100000000    0.8487260200000000    0.2500000000000000 Li
   0.4492636900000000    0.3487260200000000    0.2500000000000000 Li
   0.5507363100000000    0.6512739800000000    0.7500000000000000 Li
   0.8612584900000000    0.2631341800000000    0.7500000000000000 Nd
   0.1387415100000000    0.7368658200000000    0.2500000000000000 Nd
   0.8612584900000000    0.2368658200000000    0.2500000000000000 Nd
   0.1387415100000000    0.7631341800000000    0.7500000000000000 Nd
   0.6895225500000000    0.2500000000000000   -0.0000000000000000 B
   0.3104774500000000    0.7500000000000000    0.5000000000000000 B
   0.3104774500000000    0.7500000000000000   -0.0000000000000000 B
   0.6895225500000000    0.2500000000000000    0.5000000000000000 B
   0.8410312500000000    0.5612190200000000    0.7500000000000000 B
   0.1589687500000000    0.4387809800000000    0.2500000000000000 B
   0.8410312500000000    0.9387809800000000    0.2500000000000000 B
   0.1589687500000000    0.0612190200000000    0.7500000000000000 B
   0.0203309600000000    0.5059470900000000    0.7500000000000000 O
   0.9796690400000000    0.4940529100000000    0.2500000000000000 O
   0.0203309600000000    0.9940529100000000    0.2500000000000000 O
   0.9796690400000000    0.0059470900000000    0.7500000000000000 O
   0.8868499500000000    0.2500000000000000   -0.0000000000000000 O
   0.1131500500000000    0.7500000000000000    0.5000000000000000 O
   0.1131500500000000    0.7500000000000000   -0.0000000000000000 O
   0.8868499500000000    0.2500000000000000    0.5000000000000000 O
   0.1864430200000000    0.2026874900000000    0.7500000000000000 O
   0.8135569800000000    0.7973125100000000    0.2500000000000000 O
   0.1864430200000000    0.2973125100000000    0.2500000000000000 O
   0.8135569800000000    0.7026874900000000    0.7500000000000000 O
   0.6859986900000000    0.4758701700000000    0.7500000000000000 O
   0.3140013100000000    0.5241298300000000    0.2500000000000000 O
   0.6859986900000000    0.0241298300000000    0.2500000000000000 O
   0.3140013100000000    0.9758701700000000    0.7500000000000000 O
   0.5985631800000000    0.1953286100000000    0.6072617800000000 O
   0.4014368200000000    0.8046713900000000    0.1072617800000000 O
   0.5985631800000000    0.3046713900000000    0.3927382200000000 O
   0.4014368200000000    0.6953286100000000    0.8927382200000000 O
   0.4014368200000000    0.8046713900000000    0.3927382200000000 O
   0.5985631800000000    0.1953286100000000    0.8927382200000000 O
   0.4014368200000000    0.6953286100000000    0.6072617800000000 O
   0.5985631800000000    0.3046713900000000    0.1072617800000000 O
