Li12 In4 B8 O24
1.0
   9.0469139999999992    0.0000000000000000    0.0000000000000000
   0.0000000000000000    5.2533409999999998    0.0000000000000000
   0.0000000000000000    5.0512360000000003   10.2970480000000002
Li In B O
12 4 8 24
direct
   0.5251910000000000    0.5148580000000000    0.8267930000000000 Li
   0.8429860000000000    0.4486500000000000    0.8823430000000000 Li
   0.4748090000000000    0.4851420000000000    0.1732070000000000 Li
   0.0251910000000000    0.4851420000000000    0.6732070000000000 Li
   0.4861370000000000    0.0779240000000000    0.5961670000000000 Li
   0.1570140000000000    0.5513500000000000    0.1176570000000000 Li
   0.9861370000000000    0.9220760000000000    0.9038330000000000 Li
   0.6570140000000000    0.4486500000000000    0.3823430000000000 Li
   0.9748090000000000    0.5148580000000000    0.3267930000000000 Li
   0.5138630000000000    0.9220760000000000    0.4038330000000000 Li
   0.0138630000000000    0.0779240000000000    0.0961670000000000 Li
   0.3429860000000000    0.5513500000000000    0.6176570000000000 Li
   0.1721490000000000    0.9732550000000000    0.3768260000000000 In
   0.3278510000000000    0.9732550000000000    0.8768260000000000 In
   0.8278510000000000    0.0267450000000000    0.6231740000000000 In
   0.6721490000000000    0.0267450000000000    0.1231740000000000 In
   0.6729500000000000    0.5442050000000000    0.6194860000000000 B
   0.3309330000000000    0.0352660000000000    0.1308480000000000 B
   0.6690670000000000    0.9647340000000000    0.8691520000000000 B
   0.8270500000000000    0.5442050000000000    0.1194860000000000 B
   0.8309330000000000    0.9647340000000000    0.3691520000000000 B
   0.3270500000000000    0.4557950000000000    0.3805140000000000 B
   0.1729500000000000    0.4557950000000000    0.8805140000000000 B
   0.1690670000000000    0.0352660000000000    0.6308480000000000 B
   0.7995420000000000    0.8704720000000000    0.8360020000000000 O
   0.0523500000000000    0.2961420000000000    0.8806980000000000 O
   0.0388240000000000    0.1612330000000000    0.6405999999999999 O
   0.6696600000000000    0.1809440000000000    0.9092290000000000 O
   0.8303400000000000    0.1809440000000000    0.4092290000000000 O
   0.8149770000000000    0.6011810000000000    0.6514980000000000 O
   0.2995420000000000    0.1295280000000000    0.6639980000000000 O
   0.7004580000000000    0.8704720000000000    0.3360020000000000 O
   0.9611760000000000    0.8387670000000000    0.3594000000000000 O
   0.5523500000000000    0.7038580000000000    0.6193020000000000 O
   0.2004580000000000    0.1295280000000000    0.1639980000000000 O
   0.6850230000000000    0.6011810000000000    0.1514980000000000 O
   0.1850230000000000    0.3988190000000000    0.3485020000000000 O
   0.5388240000000000    0.8387670000000000    0.8594000000000001 O
   0.1545470000000000    0.6820490000000000    0.9122280000000000 O
   0.3149770000000000    0.3988190000000000    0.8485020000000000 O
   0.3454530000000000    0.6820490000000000    0.4122280000000000 O
   0.4476500000000000    0.2961420000000000    0.3806980000000000 O
   0.3303400000000000    0.8190560000000000    0.0907710000000000 O
   0.4611760000000000    0.1612330000000000    0.1406000000000000 O
   0.9476500000000000    0.7038580000000000    0.1193020000000000 O
   0.1696600000000000    0.8190560000000000    0.5907710000000000 O
   0.6545470000000000    0.3179510000000000    0.5877720000000000 O
   0.8454530000000000    0.3179510000000000    0.0877720000000000 O
