pymatgen with grid density = 1035 / number of atoms
0
Gamma
4 4 4
