pymatgen with grid density = 1497 / number of atoms
0
Gamma
4 3 3
