pymatgen with grid density = 1161 / number of atoms
0
Gamma
2 2 7
