Li6 S2 N2 O6
1.0
   0.0000000000000000    0.0000000000000000   -4.8679430000000004
   0.0000000000000000   -5.3906409999999996    0.0000000000000000
  -6.2218580000000001    0.0000000000000000    0.0000000000000000
Li S N O
6 2 2 6
direct
   0.5153620000000000    0.8546680000000000    0.0000000000000000 Li
   0.0153620000000000    0.1453320000000000    0.5000000000000000 Li
   0.5083600000000000    0.3220580000000000    0.2571430000000000 Li
   0.5083600000000000    0.3220580000000000    0.7428570000000000 Li
   0.0083600000000000    0.6779420000000000    0.2428570000000000 Li
   0.0083600000000000    0.6779420000000000    0.7571430000000000 Li
   0.5028300000000000    0.8337490000000000    0.5000000000000000 S
   0.0028300000000000    0.1662510000000000    0.0000000000000000 S
   0.5960250000000000    0.0964470000000000    0.5000000000000000 N
   0.0960250000000000    0.9035530000000001    0.0000000000000000 N
   0.6873170000000000    0.1969770000000000    0.0000000000000000 O
   0.1873170000000000    0.8030230000000000    0.5000000000000000 O
   0.5975730000000000    0.6813120000000000    0.3028980000000000 O
   0.5975730000000000    0.6813120000000000    0.6971020000000000 O
   0.0975730000000000    0.3186880000000000    0.1971020000000000 O
   0.0975730000000000    0.3186880000000000    0.8028980000000000 O
