Li12 Sm12 Te8 O48
1.0
  -6.3015800000000004    6.3015800000000004    6.3015800000000004
   6.3015800000000004   -6.3015800000000004    6.3015800000000004
   6.3015800000000004    6.3015800000000004   -6.3015800000000004
Li Sm Te O
12 12 8 48
direct
   0.2500000000000000    0.6250000000000000    0.3750000000000000 Li
   0.7500000000000000    0.3750000000000000    0.6250000000000000 Li
   0.7500000000000000    0.8750000000000000    0.1250000000000000 Li
   0.3750000000000000    0.2500000000000000    0.6250000000000000 Li
   0.6250000000000000    0.7500000000000000    0.3750000000000000 Li
   0.2500000000000000    0.1250000000000000    0.8750000000000000 Li
   0.1250000000000000    0.7500000000000000    0.8750000000000000 Li
   0.8750000000000000    0.2500000000000000    0.1250000000000000 Li
   0.6250000000000000    0.3750000000000000    0.2500000000000000 Li
   0.3750000000000000    0.6250000000000000    0.7500000000000000 Li
   0.8750000000000000    0.1250000000000000    0.7500000000000000 Li
   0.1250000000000000    0.8750000000000000    0.2500000000000000 Li
   0.2500000000000000    0.3750000000000000    0.1250000000000000 Sm
   0.7500000000000000    0.6250000000000000    0.8750000000000000 Sm
   0.7500000000000000    0.1250000000000000    0.3750000000000000 Sm
   0.1250000000000000    0.2500000000000000    0.3750000000000000 Sm
   0.3750000000000000    0.7500000000000000    0.1250000000000000 Sm
   0.2500000000000000    0.8750000000000000    0.6250000000000000 Sm
   0.8750000000000000    0.7500000000000000    0.6250000000000000 Sm
   0.6250000000000000    0.2500000000000000    0.8750000000000000 Sm
   0.3750000000000000    0.1250000000000000    0.2500000000000000 Sm
   0.6250000000000000    0.8750000000000000    0.7500000000000000 Sm
   0.1250000000000000    0.3750000000000000    0.7500000000000000 Sm
   0.8750000000000000    0.6250000000000000    0.2500000000000000 Sm
   0.0000000000000000    0.0000000000000000    0.0000000000000000 Te
   0.5000000000000000    0.0000000000000000    0.5000000000000000 Te
   0.0000000000000000    0.5000000000000000    0.5000000000000000 Te
   0.5000000000000000    0.0000000000000000    0.0000000000000000 Te
   0.5000000000000000    0.5000000000000000    0.0000000000000000 Te
   0.5000000000000000    0.5000000000000000    0.5000000000000000 Te
   0.0000000000000000    0.0000000000000000    0.5000000000000000 Te
   0.0000000000000000    0.5000000000000000    0.0000000000000000 Te
   0.4753820000000000    0.3821350000000000    0.3041720000000000 O
   0.5246180000000000    0.6178650000000000    0.6958280000000000 O
   0.5779620000000000    0.1712100000000000    0.1958280000000000 O
   0.9220380000000000    0.1178650000000000    0.5932470000000000 O
   0.3041720000000000    0.4753820000000000    0.3821350000000000 O
   0.3287900000000000    0.9220380000000000    0.3041720000000000 O
   0.4220380000000000    0.8287900000000000    0.8041720000000000 O
   0.0779620000000000    0.8821350000000000    0.4067530000000000 O
   0.6958280000000000    0.5246180000000000    0.6178650000000000 O
   0.6712100000000000    0.0779620000000000    0.6958280000000000 O
   0.0246180000000000    0.3287900000000000    0.9067530000000000 O
   0.1958280000000000    0.5779620000000000    0.1712100000000000 O
   0.1178650000000000    0.0246180000000000    0.1958280000000000 O
   0.9753820000000000    0.6712100000000000    0.0932470000000000 O
   0.8041720000000000    0.4220380000000000    0.8287900000000000 O
   0.8821350000000000    0.9753820000000000    0.8041720000000000 O
   0.5932470000000000    0.9220380000000000    0.1178650000000000 O
   0.1712100000000000    0.4753820000000000    0.5932470000000000 O
   0.4067530000000000    0.0779620000000000    0.8821350000000000 O
   0.8287900000000000    0.5246180000000000    0.4067530000000000 O
   0.9067530000000000    0.0246180000000000    0.3287900000000000 O
   0.3821350000000000    0.5779620000000000    0.9067530000000000 O
   0.0932470000000000    0.9753820000000000    0.6712100000000000 O
   0.6178650000000000    0.4220380000000000    0.0932470000000000 O
   0.3821350000000000    0.3041720000000000    0.4753820000000000 O
   0.5779620000000000    0.9067530000000000    0.3821350000000000 O
   0.6178650000000000    0.6958280000000000    0.5246180000000000 O
   0.4220380000000000    0.0932470000000000    0.6178650000000000 O
   0.1178650000000000    0.5932470000000000    0.9220380000000000 O
   0.0246180000000000    0.1958280000000000    0.1178650000000000 O
   0.8821350000000000    0.4067530000000000    0.0779620000000000 O
   0.9753820000000000    0.8041720000000000    0.8821350000000000 O
   0.3287900000000000    0.9067530000000000    0.0246180000000000 O
   0.9220380000000000    0.3041720000000000    0.3287900000000000 O
   0.6712100000000000    0.0932470000000000    0.9753820000000000 O
   0.0779620000000000    0.6958280000000000    0.6712100000000000 O
   0.1712100000000000    0.1958280000000000    0.5779620000000000 O
   0.4753820000000000    0.5932470000000000    0.1712100000000000 O
   0.8287900000000000    0.8041720000000000    0.4220380000000000 O
   0.5246180000000000    0.4067530000000000    0.8287900000000000 O
   0.3041720000000000    0.3287900000000000    0.9220380000000000 O
   0.6958280000000000    0.6712100000000000    0.0779620000000000 O
   0.1958280000000000    0.1178650000000000    0.0246180000000000 O
   0.8041720000000000    0.8821350000000000    0.9753820000000000 O
   0.9067530000000000    0.3821350000000000    0.5779620000000000 O
   0.0932470000000000    0.6178650000000000    0.4220380000000000 O
   0.5932470000000000    0.1712100000000000    0.4753820000000000 O
   0.4067530000000000    0.8287900000000000    0.5246180000000000 O
