Li2 U2 As2 O12
1.0
   5.1704309999999998    0.0000000000000000    0.0000000000000000
  -1.3448680000000000    5.2672549999999996    0.0000000000000000
  -1.2996270000000001   -0.3875990000000000   10.0358879999999999
Li U As O
2 2 2 12
direct
   0.9470780000000000    0.5523250000000000    0.2292700000000000 Li
   0.0529220000000000    0.4476750000000000    0.7707300000000000 Li
   0.5000000000000000    0.5000000000000000    0.5000000000000000 U
   0.0000000000000000    0.0000000000000000    0.0000000000000000 U
   0.4245980000000000    0.0231790000000000    0.7425890000000001 As
   0.5754020000000000    0.9768210000000001    0.2574110000000000 As
   0.1789890000000000    0.4901330000000000    0.3968410000000000 O
   0.2277880000000000    0.3103050000000000    0.9864270000000001 O
   0.7376120000000000    0.1448950000000000    0.8337050000000000 O
   0.7014210000000000    0.7346720000000000    0.3261000000000000 O
   0.7987050000000000    0.1595570000000000    0.1615450000000000 O
   0.2985790000000000    0.2653280000000000    0.6739000000000001 O
   0.4593280000000000    0.8276790000000001    0.6174650000000000 O
   0.2623880000000000    0.8551050000000000    0.1662950000000000 O
   0.5406720000000000    0.1723210000000000    0.3825350000000000 O
   0.2012950000000000    0.8404430000000001    0.8384550000000000 O
   0.8210110000000000    0.5098670000000000    0.6031590000000000 O
   0.7722120000000000    0.6896949999999999    0.0135730000000000 O
