Li8 H64 C16 S16 N8 O40
1.0
  10.6561229999999991    0.0000000000000000    0.0000000000000000
   0.0000000000000000   10.9871999999999996    0.0000000000000000
   0.0000000000000000    0.0000000000000000   13.4015950000000004
Li H C S N O
8 64 16 16 8 40
direct
   0.7500000000000000    0.2368770000000000    0.7500000000000000 Li
   0.7500000000000000    0.2631230000000000    0.2500000000000000 Li
   0.7712320000000000    0.2500000000000000    0.5000000000000000 Li
   0.2287680000000000    0.7500000000000000    0.5000000000000000 Li
   0.2500000000000000    0.7368770000000000    0.7500000000000000 Li
   0.2712320000000000    0.7500000000000000    0.0000000000000000 Li
   0.2500000000000000    0.7631230000000000    0.2500000000000000 Li
   0.7287680000000000    0.2500000000000000    0.0000000000000000 Li
   0.1719920000000000    0.1306880000000000    0.8228780000000000 H
   0.7902150000000000    0.9322510000000001    0.6373930000000000 H
   0.4251960000000000    0.3628230000000000    0.8039250000000000 H
   0.7097850000000000    0.5677489999999999    0.1373930000000000 H
   0.8020170000000000    0.0836170000000000    0.3618800000000000 H
   0.2097850000000000    0.0677490000000000    0.3626070000000000 H
   0.9119790000000000    0.7539090000000001    0.8823970000000000 H
   0.4119790000000000    0.2460910000000000    0.3823970000000000 H
   0.5880210000000000    0.7460909999999999    0.3823970000000000 H
   0.4119790000000000    0.2539090000000000    0.6176030000000000 H
   0.7097850000000000    0.9322510000000001    0.8626070000000000 H
   0.6585890000000000    0.1163390000000000    0.3731120000000000 H
   0.4251960000000000    0.1371770000000000    0.1960750000000000 H
   0.9223460000000000    0.8841080000000000    0.5625220000000000 H
   0.1404580000000000    0.3753920000000000    0.0450700000000000 H
   0.3280080000000000    0.1306880000000000    0.6771220000000000 H
   0.3280080000000000    0.3693120000000000    0.3228780000000000 H
   0.1719920000000000    0.3693120000000000    0.1771220000000000 H
   0.4223460000000000    0.3841080000000000    0.9374780000000000 H
   0.1979830000000000    0.5836170000000001    0.3618800000000000 H
   0.8414110000000000    0.3836610000000000    0.8731120000000000 H
   0.1585890000000000    0.6163390000000000    0.1268880000000000 H
   0.5748040000000000    0.6371770000000000    0.1960750000000000 H
   0.3020170000000000    0.9163829999999999    0.8618800000000000 H
   0.8280080000000000    0.8693120000000000    0.1771220000000000 H
   0.6404580000000000    0.6246080000000001    0.5450700000000001 H
   0.6979830000000000    0.0836170000000000    0.1381200000000000 H
   0.8595420000000000    0.8753919999999999    0.0450700000000000 H
   0.9251960000000000    0.8628230000000000    0.6960750000000000 H
   0.2097850000000000    0.4322510000000000    0.6373930000000000 H
   0.6719920000000000    0.8693120000000000    0.3228780000000000 H
   0.5880210000000000    0.7539090000000001    0.6176030000000000 H
   0.3414110000000000    0.6163390000000000    0.3731120000000000 H
   0.0776540000000000    0.1158920000000000    0.4374780000000000 H
   0.9251960000000000    0.6371770000000000    0.3039250000000000 H
   0.2902150000000000    0.4322510000000000    0.8626070000000000 H
   0.3595420000000000    0.3753920000000000    0.4549300000000000 H
   0.3414110000000000    0.8836610000000000    0.6268880000000000 H
   0.0776540000000000    0.3841080000000000    0.5625220000000000 H
   0.4223460000000000    0.1158920000000000    0.0625220000000000 H
   0.5776540000000000    0.8841080000000000    0.9374780000000000 H
   0.9223460000000000    0.6158920000000000    0.4374780000000000 H
   0.1404580000000000    0.1246080000000000    0.9549299999999999 H
   0.7902150000000000    0.5677489999999999    0.3626070000000000 H
   0.0880210000000000    0.2539090000000000    0.8823970000000000 H
   0.2902150000000000    0.0677490000000000    0.1373930000000000 H
   0.5776540000000000    0.6158920000000000    0.0625220000000000 H
   0.1979830000000000    0.9163829999999999    0.6381200000000000 H
   0.1585890000000000    0.8836610000000000    0.8731120000000000 H
   0.6979830000000000    0.4163830000000000    0.8618800000000000 H
   0.0748040000000000    0.1371770000000000    0.3039250000000000 H
   0.0748040000000000    0.3628230000000000    0.6960750000000000 H
   0.5748040000000000    0.8628230000000000    0.8039250000000000 H
   0.3020170000000000    0.5836170000000001    0.1381200000000000 H
   0.8414110000000000    0.1163390000000000    0.1268880000000000 H
   0.6585890000000000    0.3836610000000000    0.6268880000000000 H
   0.8280080000000000    0.6306880000000000    0.8228780000000000 H
   0.6404580000000000    0.8753919999999999    0.4549300000000000 H
   0.9119790000000000    0.7460909999999999    0.1176030000000000 H
   0.6719920000000000    0.6306880000000000    0.6771220000000000 H
   0.0880210000000000    0.2460910000000000    0.1176030000000000 H
   0.8020170000000000    0.4163830000000000    0.6381200000000000 H
   0.3595420000000000    0.1246080000000000    0.5450700000000001 H
   0.8595420000000000    0.6246080000000001    0.9549299999999999 H
   0.6075960000000000    0.9208150000000001    0.8651350000000000 C
   0.6059310000000000    0.8444199999999999    0.3820940000000000 C
   0.1059310000000000    0.1555800000000000    0.8820940000000000 C
   0.6075960000000000    0.5791849999999999    0.1348650000000000 C
   0.1075960000000000    0.0791850000000000    0.3651350000000000 C
   0.1075960000000000    0.4208150000000000    0.6348650000000000 C
   0.3940690000000000    0.3444200000000000    0.3820940000000000 C
   0.1059310000000000    0.3444200000000000    0.1179060000000000 C
   0.6059310000000000    0.6555800000000001    0.6179060000000000 C
   0.3924040000000000    0.0791850000000000    0.1348650000000000 C
   0.8940690000000000    0.6555800000000001    0.8820940000000000 C
   0.8924040000000000    0.5791849999999999    0.3651350000000000 C
   0.8924040000000000    0.9208150000000001    0.6348650000000000 C
   0.3924040000000000    0.4208150000000000    0.8651350000000000 C
   0.8940690000000000    0.8444199999999999    0.1179060000000000 C
   0.3940690000000000    0.1555800000000000    0.6179060000000000 C
   0.0387160000000000    0.5792820000000000    0.8588990000000000 S
   0.9612840000000000    0.0792820000000000    0.8588990000000000 S
   0.5377020000000000    0.4324320000000000    0.1490500000000000 S
   0.9612840000000000    0.4207180000000000    0.1411010000000000 S
   0.0377020000000000    0.9324320000000000    0.3509500000000000 S
   0.0377020000000000    0.5675680000000000    0.6490500000000000 S
   0.9622980000000000    0.4324320000000000    0.3509500000000000 S
   0.4622980000000000    0.9324320000000000    0.1490500000000000 S
   0.5377020000000000    0.0675680000000000    0.8509500000000000 S
   0.0387160000000000    0.9207180000000000    0.1411010000000000 S
   0.4612840000000000    0.5792820000000000    0.6411010000000000 S
   0.9622980000000000    0.0675680000000000    0.6490500000000000 S
   0.5387160000000000    0.0792820000000000    0.6411010000000000 S
   0.4622980000000000    0.5675680000000000    0.8509500000000000 S
   0.4612840000000000    0.9207180000000000    0.3588990000000000 S
   0.5387160000000000    0.4207180000000000    0.3588990000000000 S
   0.4098670000000000    0.6261370000000001    0.7482950000000000 N
   0.4098670000000000    0.8738629999999999    0.2517050000000000 N
   0.0901330000000000    0.8738629999999999    0.2482950000000000 N
   0.0901330000000000    0.6261370000000001    0.7517050000000000 N
   0.9098670000000000    0.3738630000000000    0.2482950000000000 N
   0.5901330000000000    0.1261370000000000    0.7482950000000000 N
   0.5901330000000000    0.3738630000000000    0.2517050000000000 N
   0.9098670000000000    0.1261370000000000    0.7517050000000000 N
   0.1291680000000000    0.6205130000000000    0.9327440000000000 O
   0.9169910000000000    0.3556250000000000    0.4315830000000000 O
   0.3708320000000000    0.6205130000000000    0.5672560000000000 O
   0.0830090000000000    0.8556250000000000    0.4315830000000000 O
   0.4878620000000000    0.0518900000000000    0.3591590000000000 O
   0.9878620000000000    0.5518900000000000    0.1408410000000000 O
   0.4008490000000000    0.4495360000000000    0.1520050000000000 O
   0.3708320000000000    0.8794870000000000    0.4327440000000000 O
   0.0991510000000000    0.4495360000000000    0.3479950000000000 O
   0.7570270000000000    0.1523570000000000    0.1325710000000000 O
   0.7570270000000000    0.3476430000000000    0.8674290000000000 O
   0.6291679999999999    0.1205130000000000    0.5672560000000000 O
   0.2570270000000000    0.6523570000000000    0.3674290000000000 O
   0.2429730000000000    0.6523570000000000    0.1325710000000000 O
   0.4008490000000000    0.0504640000000000    0.8479950000000001 O
   0.5830090000000000    0.1443750000000000    0.9315830000000000 O
   0.0991510000000000    0.0504640000000000    0.6520049999999999 O
   0.2429730000000000    0.8476430000000000    0.8674290000000000 O
   0.8708320000000001    0.1205130000000000    0.9327440000000000 O
   0.5830090000000000    0.3556250000000000    0.0684170000000000 O
   0.7429730000000000    0.1523570000000000    0.3674290000000000 O
   0.4169910000000000    0.6443750000000000    0.9315830000000000 O
   0.9878620000000000    0.9481100000000000    0.8591590000000000 O
   0.5121380000000000    0.9481100000000000    0.6408410000000000 O
   0.0830090000000000    0.6443750000000000    0.5684170000000000 O
   0.5121380000000000    0.5518900000000000    0.3591590000000000 O
   0.5991510000000000    0.5504640000000000    0.8479950000000001 O
   0.0121380000000000    0.0518900000000000    0.1408410000000000 O
   0.1291680000000000    0.8794870000000000    0.0672560000000000 O
   0.8708320000000001    0.3794870000000000    0.0672560000000000 O
   0.4169910000000000    0.8556250000000000    0.0684170000000000 O
   0.9008490000000000    0.9495360000000000    0.3479950000000000 O
   0.5991510000000000    0.9495360000000000    0.1520050000000000 O
   0.6291679999999999    0.3794870000000000    0.4327440000000000 O
   0.9169910000000000    0.1443750000000000    0.5684170000000000 O
   0.0121380000000000    0.4481100000000000    0.8591590000000000 O
   0.2570270000000000    0.8476430000000000    0.6325710000000000 O
   0.9008490000000000    0.5504640000000000    0.6520049999999999 O
   0.7429730000000000    0.3476430000000000    0.6325710000000000 O
   0.4878620000000000    0.4481100000000000    0.6408410000000000 O
