Li1 Tm1 U2 S3 O2
1.0
   3.7918900000000000    0.0196070000000000   -0.3547000000000000
   0.0196070000000000    3.7918900000000000    0.3547000000000000
  -2.8297680000000001   -0.9817300000000000   10.8548779999999994
Li Tm U S O
1 1 2 3 2
direct
   0.5883670000000000    0.9157550000000000    0.5041220000000000 Li
   0.0697790000000000    0.9360560000000000    0.0058350000000000 Tm
   0.2381040000000000    0.4119890000000000    0.6500930000000000 U
   0.9322430000000000    0.4213620000000000    0.3536040000000000 U
   0.3357270000000000    0.9222250000000000    0.2579520000000000 S
   0.8416250000000000    0.9134190000000000    0.7550440000000000 S
   0.5819810000000000    0.4341550000000000    0.0161370000000000 S
   0.0896540000000000    0.9150140000000000    0.5053920000000000 O
   0.5903780000000000    0.4157380000000000    0.5053920000000000 O
