Li8 H6 Br2 O6
1.0
   7.7305630000000001    0.0000000000000000    0.0000000000000000
   0.0000000000000000    5.5406930000000001    0.0000000000000000
   0.0000000000000000    0.4647010000000000    6.6083639999999999
Li H Br O
8 6 2 6
direct
   0.7500000000000000    0.9224360000000000    0.9190970000000001 Li
   0.4783750000000000    0.6492170000000000    0.1322420000000000 Li
   0.0216250000000000    0.6492170000000000    0.1322420000000000 Li
   0.7500000000000000    0.5980980000000000    0.6932490000000000 Li
   0.2500000000000000    0.4019020000000000    0.3067510000000000 Li
   0.9783750000000000    0.3507830000000000    0.8677580000000000 Li
   0.5216250000000000    0.3507830000000000    0.8677580000000000 Li
   0.2500000000000000    0.0775640000000000    0.0809030000000000 Li
   0.4715480000000000    0.7988630000000000    0.7764700000000000 H
   0.0284520000000000    0.7988630000000000    0.7764700000000000 H
   0.2500000000000000    0.8246380000000000    0.3589780000000000 H
   0.7500000000000000    0.1753620000000000    0.6410220000000000 H
   0.9715480000000000    0.2011370000000000    0.2235300000000000 H
   0.5284520000000000    0.2011370000000000    0.2235300000000000 H
   0.7500000000000000    0.8276470000000000    0.3316390000000000 Br
   0.2500000000000000    0.1723530000000000    0.6683610000000000 Br
   0.9419740000000000    0.7067470000000000    0.8546260000000000 O
   0.5580260000000000    0.7067470000000000    0.8546260000000000 O
   0.2500000000000000    0.7533609999999999    0.2272210000000000 O
   0.7500000000000000    0.2466390000000000    0.7727790000000000 O
   0.4419740000000000    0.2932530000000000    0.1453740000000000 O
   0.0580260000000000    0.2932530000000000    0.1453740000000000 O
