Li2 Si12 Bi18 O52
1.0
   4.8590980000000004   -8.4162040000000005    0.0000000000000000
   4.8590980000000004    8.4162040000000005    0.0000000000000000
   0.0000000000000000    0.0000000000000000   14.1493190000000002
Li Si Bi O
2 12 18 52
direct
   0.3333330000000000    0.6666670000000000    0.2421560000000000 Li
   0.6666670000000000    0.3333330000000000    0.7578440000000000 Li
   0.0295450000000000    0.6278270000000000    0.3723740000000000 Si
   0.0245500000000000    0.6241650000000000    0.8744390000000000 Si
   0.5996150000000000    0.9754500000000000    0.8744390000000000 Si
   0.5982820000000000    0.9704550000000000    0.3723740000000000 Si
   0.3758350000000000    0.4003850000000000    0.8744390000000000 Si
   0.3721730000000000    0.4017180000000000    0.3723740000000000 Si
   0.6278270000000000    0.5982820000000000    0.6276260000000000 Si
   0.6241650000000000    0.5996150000000000    0.1255610000000000 Si
   0.4017180000000000    0.0295450000000000    0.6276260000000000 Si
   0.4003850000000000    0.0245500000000000    0.1255610000000000 Si
   0.9704550000000000    0.3721730000000000    0.6276260000000000 Si
   0.9754500000000000    0.3758350000000000    0.1255610000000000 Si
   0.9879380000000000    0.7590240000000000    0.6267560000000000 Bi
   0.9890900000000000    0.7587230000000000    0.1260300000000000 Bi
   0.3333330000000000    0.6666670000000000    0.7447310000000000 Bi
   0.3333330000000000    0.6666670000000000    0.0196980000000000 Bi
   0.3333330000000000    0.6666670000000000    0.4864760000000000 Bi
   0.2409760000000000    0.2289140000000000    0.6267560000000000 Bi
   0.2412770000000000    0.2303680000000000    0.1260300000000000 Bi
   0.2289140000000000    0.9879380000000000    0.3732440000000000 Bi
   0.2303680000000000    0.9890900000000000    0.8739700000000000 Bi
   0.7710860000000000    0.0120620000000000    0.6267560000000000 Bi
   0.7696320000000000    0.0109100000000000    0.1260300000000000 Bi
   0.7587230000000000    0.7696320000000000    0.8739700000000000 Bi
   0.7590240000000000    0.7710860000000000    0.3732440000000000 Bi
   0.6666670000000000    0.3333330000000000    0.9803020000000000 Bi
   0.6666670000000000    0.3333330000000000    0.5135240000000000 Bi
   0.6666670000000000    0.3333330000000000    0.2552690000000000 Bi
   0.0109100000000000    0.2412770000000000    0.8739700000000000 Bi
   0.0120620000000000    0.2409760000000000    0.3732440000000000 Bi
   0.0794660000000000    0.7592940000000000    0.2860150000000000 O
   0.0900410000000000    0.7505309999999999    0.7840720000000000 O
   0.0897960000000000    0.7483850000000000    0.9654590000000000 O
   0.0959240000000000    0.7491340000000000    0.4653860000000000 O
   0.1322730000000000    0.5346970000000000    0.3708880000000000 O
   0.1215450000000000    0.5256729999999999    0.8718650000000000 O
   0.3357960000000000    0.8382250000000000    0.6263160000000000 O
   0.3245410000000000    0.8315100000000000    0.1278550000000000 O
   0.1684900000000000    0.4930310000000000    0.1278550000000000 O
   0.1617750000000000    0.4975700000000000    0.6263160000000000 O
   0.4024240000000000    0.8677270000000000    0.3708880000000000 O
   0.4041270000000000    0.8784550000000000    0.8718650000000000 O
   0.0000000000000000    0.0000000000000000    0.8731449999999999 O
   0.0000000000000000    0.0000000000000000    0.6222490000000001 O
   0.0000000000000000    0.0000000000000000    0.3777510000000000 O
   0.0000000000000000    0.0000000000000000    0.1268550000000000 O
   0.2508660000000000    0.3467900000000000    0.4653860000000000 O
   0.2494690000000000    0.3395100000000000    0.7840720000000000 O
   0.2516150000000000    0.3414110000000000    0.9654590000000000 O
   0.2407060000000000    0.3201730000000000    0.2860150000000000 O
   0.5024300000000000    0.6642040000000000    0.6263160000000000 O
   0.5069690000000000    0.6754590000000000    0.1278550000000000 O
   0.4653030000000000    0.5975760000000000    0.3708880000000000 O
   0.4743270000000000    0.5958730000000000    0.8718650000000000 O
   0.6532100000000000    0.9040760000000000    0.4653860000000000 O
   0.6585890000000000    0.9102040000000000    0.9654590000000000 O
   0.6604900000000000    0.9099590000000000    0.7840720000000000 O
   0.6798270000000000    0.9205340000000000    0.2860150000000000 O
   0.3467900000000000    0.0959240000000000    0.5346140000000000 O
   0.3201730000000000    0.0794660000000000    0.7139850000000000 O
   0.3414110000000000    0.0897960000000000    0.0345410000000000 O
   0.3395100000000000    0.0900410000000000    0.2159280000000000 O
   0.5346970000000000    0.4024240000000000    0.6291120000000000 O
   0.5256729999999999    0.4041270000000000    0.1281350000000000 O
   0.4930310000000000    0.3245410000000000    0.8721449999999999 O
   0.4975700000000000    0.3357960000000000    0.3736840000000000 O
   0.7483850000000000    0.6585890000000000    0.0345410000000000 O
   0.7505309999999999    0.6604900000000000    0.2159280000000000 O
   0.7491340000000000    0.6532100000000000    0.5346140000000000 O
   0.7592940000000000    0.6798270000000000    0.7139850000000000 O
   0.5975760000000000    0.1322730000000000    0.6291120000000000 O
   0.5958730000000000    0.1215450000000000    0.1281350000000000 O
   0.8315100000000000    0.5069690000000000    0.8721449999999999 O
   0.8382250000000000    0.5024300000000000    0.3736840000000000 O
   0.6754590000000000    0.1684900000000000    0.8721449999999999 O
   0.6642040000000000    0.1617750000000000    0.3736840000000000 O
   0.8677270000000000    0.4653030000000000    0.6291120000000000 O
   0.8784550000000000    0.4743270000000000    0.1281350000000000 O
   0.9102040000000000    0.2516150000000000    0.0345410000000000 O
   0.9040760000000000    0.2508660000000000    0.5346140000000000 O
   0.9205340000000000    0.2407060000000000    0.7139850000000000 O
   0.9099590000000000    0.2494690000000000    0.2159280000000000 O
