Li14 Bi2 B4 O16
1.0
   3.2008420000000002    7.3762309999999998    0.0000000000000000
  -3.2008420000000002    7.3762309999999998    0.0000000000000000
   0.0000000000000000    0.1289620000000000    7.5374749999999997
Li Bi B O
14 2 4 16
direct
   0.1867730000000000    0.6744410000000000    0.3693040000000000 Li
   0.6744410000000000    0.1867730000000000    0.3693040000000000 Li
   0.9245560000000000    0.9245560000000000    0.7232810000000000 Li
   0.3570250000000000    0.3570250000000000    0.1503050000000000 Li
   0.0683080000000000    0.5692040000000000    0.8741290000000000 Li
   0.5692040000000000    0.0683080000000000    0.8741290000000000 Li
   0.4307960000000000    0.9316920000000000    0.1258710000000000 Li
   0.9316920000000000    0.4307960000000000    0.1258710000000000 Li
   0.6429750000000000    0.6429750000000000    0.8496950000000000 Li
   0.0754440000000000    0.0754440000000000    0.2767190000000000 Li
   0.8132270000000000    0.3255590000000000    0.6306960000000000 Li
   0.3255590000000000    0.8132270000000000    0.6306960000000000 Li
   0.0000000000000000    0.0000000000000000    0.0000000000000000 Li
   0.5000000000000000    0.5000000000000000    0.0000000000000000 Li
   0.7349160000000000    0.7349160000000000    0.4357190000000000 Bi
   0.2650840000000000    0.2650840000000000    0.5642810000000000 Bi
   0.4273530000000000    0.4273530000000000    0.7345210000000000 B
   0.8624360000000000    0.8624360000000000    0.1548940000000000 B
   0.1375640000000000    0.1375640000000000    0.8451060000000000 B
   0.5726470000000000    0.5726470000000000    0.2654790000000000 B
   0.4761380000000000    0.4761380000000000    0.2596910000000000 O
   0.9497760000000000    0.9497760000000000    0.2437300000000000 O
   0.1918200000000000    0.5818170000000000    0.6278100000000000 O
   0.5818170000000000    0.1918200000000000    0.6278100000000000 O
   0.3820580000000000    0.3820580000000000    0.9080900000000000 O
   0.8677140000000000    0.8677140000000000    0.9642370000000000 O
   0.0000800000000000    0.6106950000000000    0.2275120000000000 O
   0.6106950000000000    0.0000800000000000    0.2275120000000000 O
   0.3893050000000000    0.9999200000000000    0.7724880000000000 O
   0.9999200000000000    0.3893050000000000    0.7724880000000000 O
   0.1322860000000000    0.1322860000000000    0.0357630000000000 O
   0.6179420000000000    0.6179420000000000    0.0919100000000000 O
   0.4181830000000000    0.8081800000000000    0.3721900000000000 O
   0.8081800000000000    0.4181830000000000    0.3721900000000000 O
   0.0502240000000000    0.0502240000000000    0.7562700000000000 O
   0.5238620000000000    0.5238620000000000    0.7403090000000000 O
