Cs4 Ba4 Li4 P8 O28
1.0
  10.9843869999999999    0.0000000000000000    0.0000000000000000
   0.0000000000000000    7.1807080000000001    0.0000000000000000
   0.0000000000000000    2.9192290000000001   10.4824719999999996
Cs Ba Li P O
4 4 4 8 28
direct
   0.3277010000000000    0.2487820000000000    0.4957860000000000 Cs
   0.8277010000000000    0.7512180000000001    0.0042140000000000 Cs
   0.6722990000000000    0.7512180000000001    0.5042140000000001 Cs
   0.1722990000000000    0.2487820000000000    0.9957859999999999 Cs
   0.9425550000000000    0.1940200000000000    0.6225590000000000 Ba
   0.4425550000000000    0.8059800000000000    0.8774410000000000 Ba
   0.0574450000000000    0.8059800000000000    0.3774410000000000 Ba
   0.5574450000000000    0.1940200000000000    0.1225590000000000 Ba
   0.7589560000000000    0.3343940000000000    0.8593380000000000 Li
   0.2589560000000000    0.6656060000000000    0.6406620000000000 Li
   0.2410440000000000    0.6656060000000000    0.1406620000000000 Li
   0.7410440000000000    0.3343940000000000    0.3593380000000000 Li
   0.9849980000000000    0.6226870000000000    0.6970080000000000 P
   0.4849980000000000    0.3773130000000000    0.8029920000000000 P
   0.0150020000000000    0.3773130000000000    0.3029920000000000 P
   0.5150020000000000    0.6226870000000000    0.1970080000000000 P
   0.6358310000000000    0.1611950000000000    0.6636780000000000 P
   0.1358310000000000    0.8388050000000000    0.8363220000000000 P
   0.3641690000000000    0.8388050000000000    0.3363220000000000 P
   0.8641690000000000    0.1611950000000000    0.1636780000000000 P
   0.5457830000000000    0.3437790000000000    0.6728150000000001 O
   0.0457830000000000    0.6562210000000001    0.8271849999999999 O
   0.4542170000000000    0.6562210000000001    0.3271850000000000 O
   0.9542170000000000    0.3437790000000000    0.1728150000000000 O
   0.0859960000000000    0.5352140000000000    0.6303090000000000 O
   0.5859960000000000    0.4647860000000000    0.8696910000000000 O
   0.9140040000000000    0.4647860000000000    0.3696910000000000 O
   0.4140040000000000    0.5352140000000000    0.1303090000000000 O
   0.9419670000000000    0.8181580000000001    0.6113450000000000 O
   0.4419670000000000    0.1818420000000000    0.8886550000000000 O
   0.0580330000000000    0.1818420000000000    0.3886550000000000 O
   0.5580330000000000    0.8181580000000001    0.1113450000000000 O
   0.7213230000000000    0.1201560000000000    0.7796970000000000 O
   0.2213230000000000    0.8798440000000000    0.7203030000000000 O
   0.2786770000000000    0.8798440000000000    0.2203030000000000 O
   0.7786770000000000    0.1201560000000000    0.2796970000000000 O
   0.8814340000000001    0.4798190000000000    0.7444290000000000 O
   0.3814340000000000    0.5201810000000000    0.7555710000000000 O
   0.1185660000000000    0.5201810000000000    0.2555710000000000 O
   0.6185659999999999    0.4798190000000000    0.2444290000000000 O
   0.7059850000000000    0.2420890000000000    0.5391319999999999 O
   0.2059850000000000    0.7579110000000000    0.9608680000000001 O
   0.2940150000000000    0.7579110000000000    0.4608680000000000 O
   0.7940150000000000    0.2420890000000000    0.0391320000000000 O
   0.5505790000000000    0.9949620000000000    0.6612410000000000 O
   0.0505790000000000    0.0050380000000000    0.8387590000000000 O
   0.4494210000000000    0.0050380000000000    0.3387590000000000 O
   0.9494210000000000    0.9949620000000000    0.1612410000000000 O
