ALGO = Fast
EDIFF = 0.0092
ENCUT = 520
IBRION = 2
ISIF = 3
ISMEAR = 0
ISPIN = 2
LASPH = True
LORBIT = 11
LREAL = Auto
LWAVE = False
MAGMOM = 184*0.0
NELM = 100
NSW = 99
PREC = Accurate
SIGMA = 0.05
