pymatgen with grid density = 1246 / number of atoms
0
Gamma
2 1 1
