Li4 Ca36 Mg4 P28 O112
1.0
  10.4187169999999991    0.0000000000000000    0.0000000000000000
  -5.2092489999999998   12.8248300000000004    0.0000000000000000
  -0.0000420000000000   -4.2318870000000004   17.5422429999999991
Li Ca Mg P O
4 36 4 28 112
direct
   0.7639210000000000    0.5333580000000000    0.9236000000000000 Li
   0.2225880000000000    0.4434890000000000    0.4050980000000000 Li
   0.9658450000000000    0.9394020000000000    0.6566610000000001 Li
   0.4678060000000000    0.9396160000000000    0.1544670000000000 Li
   0.3069500000000000    0.2070980000000000    0.9649540000000000 Ca
   0.6078230000000000    0.2084310000000000    0.6728480000000000 Ca
   0.3146800000000000    0.0298220000000000    0.7676740000000000 Ca
   0.8910830000000000    0.2013780000000000    0.9678050000000000 Ca
   0.5089070000000000    0.0349280000000000    0.9731080000000000 Ca
   0.7239570000000000    0.0299150000000000    0.7752440000000000 Ca
   0.1557620000000000    0.7091810000000000    0.7125870000000000 Ca
   0.3458740000000000    0.7086760000000000    0.9200290000000000 Ca
   0.5642600000000000    0.7085630000000001    0.7173750000000000 Ca
   0.8047250000000000    0.2087570000000000    0.4628170000000000 Ca
   0.1123850000000000    0.2086390000000000    0.1715200000000000 Ca
   0.9349510000000000    0.3110620000000000    0.7855080000000000 Ca
   0.1674890000000000    0.3127290000000000    0.5752860000000000 Ca
   0.8199440000000000    0.0292280000000000    0.2637450000000000 Ca
   0.3659960000000000    0.3128610000000000    0.7956270000000000 Ca
   0.3906340000000000    0.2039440000000000    0.4708120000000000 Ca
   0.0011040000000000    0.0276380000000000    0.4746610000000000 Ca
   0.2193780000000000    0.0260140000000000    0.2768000000000000 Ca
   0.6268340000000000    0.8113950000000000    0.5296290000000000 Ca
   0.6533520000000000    0.7094830000000000    0.2137620000000000 Ca
   0.8456170000000000    0.7065690000000000    0.4184070000000000 Ca
   0.0635130000000000    0.7057020000000001    0.2172000000000000 Ca
   0.8963640000000000    0.8130600000000000    0.8244220000000000 Ca
   0.1999580000000000    0.8148120000000000    0.5492600000000000 Ca
   0.5600870000000000    0.5266440000000000    0.5245180000000000 Ca
   0.9567190000000000    0.5274640000000000    0.5163690000000000 Ca
   0.4305010000000000    0.3114650000000000    0.2835530000000000 Ca
   0.7730730000000000    0.5304730000000000    0.7233130000000000 Ca
   0.6666170000000000    0.3104260000000000    0.0757840000000000 Ca
   0.8614950000000000    0.3094110000000000    0.2992690000000000 Ca
   0.1270350000000000    0.8097170000000000    0.0314980000000000 Ca
   0.3868680000000000    0.8080780000000000    0.3251760000000000 Ca
   0.6980080000000000    0.8145990000000000    0.0505170000000000 Ca
   0.0559300000000000    0.5269239999999999    0.0232680000000000 Ca
   0.4550980000000000    0.5274970000000000    0.0161200000000000 Ca
   0.2769950000000000    0.5272860000000000    0.2242520000000000 Ca
   0.0010690000000000    0.0009780000000000    0.0026750000000000 Mg
   0.5038140000000000    0.0022060000000000    0.4987950000000000 Mg
   0.2530930000000000    0.4987950000000000    0.7512100000000000 Mg
   0.7539400000000001    0.5027030000000000    0.2513450000000000 Mg
   0.6022140000000000    0.2062080000000000    0.8650260000000000 P
   0.1995200000000000    0.9108340000000000    0.8904900000000000 P
   0.4789540000000000    0.9129930000000001    0.6558800000000000 P
   0.6907500000000000    0.9117350000000000    0.9111640000000000 P
   0.0269020000000000    0.5988510000000000    0.8451109999999999 P
   0.3188230000000000    0.5955360000000000    0.5863110000000000 P
   0.9612050000000000    0.4107360000000000    0.6403980000000000 P
   0.5524289999999999    0.5977820000000000    0.8653000000000000 P
   0.1882300000000000    0.4120980000000000    0.9096720000000000 P
   0.4745770000000000    0.4083410000000000    0.6606180000000000 P
   0.1011030000000000    0.2039360000000000    0.3647470000000000 P
   0.8281050000000000    0.1016730000000000    0.5956950000000000 P
   0.6986300000000000    0.9103530000000000    0.3888710000000000 P
   0.9797520000000000    0.9130100000000000    0.1564310000000000 P
   0.0323920000000000    0.0984460000000000    0.8399740000000000 P
   0.2898690000000000    0.1010450000000000    0.6174630000000000 P
   0.1885740000000000    0.9142320000000000    0.4110420000000000 P
   0.5254660000000000    0.6021870000000000    0.3476880000000000 P
   0.8224140000000000    0.6003560000000000    0.0908320000000000 P
   0.8526690000000000    0.7057120000000000    0.6204200000000000 P
   0.4560510000000000    0.4068510000000000    0.1378730000000000 P
   0.0566530000000000    0.6009070000000000    0.3643330000000000 P
   0.6852790000000000    0.4093650000000000    0.4097990000000000 P
   0.9694940000000000    0.4115940000000000    0.1595450000000000 P
   0.3263240000000000    0.0993750000000000    0.0944820000000000 P
   0.5278969999999999    0.1001650000000000    0.3367510000000000 P
   0.7890800000000000    0.0960810000000000    0.1166540000000000 P
   0.3509070000000000    0.7012370000000000    0.1162000000000000 P
   0.4815920000000000    0.2433370000000000    0.8739670000000000 O
   0.6928320000000000    0.2439880000000000    0.8056850000000000 O
   0.6918650000000000    0.2446240000000000    0.9441410000000000 O
   0.2972350000000000    0.0310170000000000    0.9042810000000000 O
   0.5396850000000000    0.0773810000000000    0.8446420000000000 O
   0.5268420000000000    0.0323460000000000    0.6921170000000000 O
   0.1531200000000000    0.8751780000000000    0.8037230000000000 O
   0.0724080000000000    0.8921870000000000    0.9361130000000000 O
   0.4511870000000000    0.8920970000000000    0.5686380000000000 O
   0.7237810000000000    0.0319810000000000    0.9149150000000000 O
   0.3333680000000000    0.8541130000000000    0.6882450000000000 O
   0.5887370000000000    0.8736590000000000    0.6750930000000001 O
   0.2915020000000000    0.8545060000000000    0.9147330000000000 O
   0.9686180000000000    0.6670460000000000    0.8035560000000000 O
   0.5633880000000000    0.8776320000000000    0.9592590000000000 O
   0.6498969999999999    0.8471890000000000    0.8225130000000000 O
   0.2188860000000000    0.6472730000000000    0.5626650000000000 O
   0.8096260000000000    0.8889860000000001    0.9393840000000000 O
   0.4748940000000000    0.6686670000000000    0.5857920000000000 O
   0.0554730000000000    0.6473100000000001    0.9336490000000000 O
   0.9866940000000000    0.5340190000000000    0.6547040000000000 O
   0.1639520000000000    0.6014330000000000    0.8085690000000000 O
   0.3020550000000000    0.5999460000000000    0.6769230000000001 O
   0.9022240000000000    0.4832460000000000    0.8296060000000000 O
   0.2878540000000000    0.4881410000000000    0.5370870000000000 O
   0.4376460000000000    0.6014510000000000    0.8169890000000000 O
   0.5560760000000000    0.6733020000000000    0.9460550000000000 O
   0.9697020000000000    0.3712820000000000    0.5522500000000000 O
   0.8104250000000000    0.3520170000000000    0.6670440000000000 O
   0.6937920000000000    0.6411570000000000    0.8305430000000000 O
   0.2593270000000000    0.5343560000000001    0.9424680000000000 O
   0.5491650000000000    0.5318310000000001    0.6647650000000001 O
   0.0728800000000000    0.3920370000000000    0.6840100000000000 O
   0.9864140000000000    0.2470330000000000    0.3739570000000000 O
   0.0365340000000000    0.3741430000000000    0.9283420000000000 O
   0.1882420000000000    0.3881550000000000    0.8162280000000000 O
   0.1943330000000000    0.2486640000000000    0.3042820000000000 O
   0.3280970000000000    0.3893970000000000    0.6947310000000000 O
   0.5317330000000000    0.4861870000000000    0.8790230000000000 O
   0.4497990000000000    0.3494040000000000    0.5746440000000000 O
   0.1874030000000000    0.2429550000000000    0.4461750000000000 O
   0.6942110000000000    0.1009320000000000    0.5622600000000000 O
   0.9474730000000000    0.1646120000000000    0.5550480000000000 O
   0.5656230000000000    0.3734340000000000    0.7084650000000000 O
   0.2633190000000000    0.3486370000000000    0.9365550000000000 O
   0.8339240000000000    0.1412670000000000    0.6849170000000000 O
   0.8005290000000000    0.0342960000000000    0.4069300000000000 O
   0.0436810000000000    0.0823540000000000    0.3492400000000000 O
   0.0285060000000000    0.0314020000000000    0.1940210000000000 O
   0.9409459999999999    0.1683820000000000    0.8350490000000000 O
   0.2037040000000000    0.1474270000000000    0.5778000000000000 O
   0.6536400000000000    0.8736980000000000    0.2998980000000000 O
   0.5739850000000000    0.8929859999999999    0.4356830000000000 O
   0.9570370000000000    0.8907710000000000    0.0672530000000000 O
   0.8333300000000000    0.9812200000000000    0.5796500000000000 O
   0.3569420000000000    0.1659830000000000    0.6935040000000000 O
   0.1775670000000000    0.1432580000000000    0.8147850000000000 O
   0.2249920000000000    0.0278880000000000    0.4149170000000000 O
   0.8317630000000000    0.8485400000000000    0.1844980000000000 O
   0.0480290000000000    0.1014170000000000    0.9225240000000000 O
   0.4107090000000000    0.0971920000000000    0.5647680000000000 O
   0.0956470000000000    0.8765550000000000    0.1757850000000000 O
   0.7837280000000000    0.8497990000000000    0.4148270000000000 O
   0.9491039999999999    0.9882860000000000    0.7861860000000001 O
   0.1937880000000000    0.9836810000000000    0.6241790000000000 O
   0.4670670000000000    0.6653760000000000    0.3041280000000000 O
   0.0659700000000000    0.8767000000000000    0.4567850000000000 O
   0.1527490000000000    0.8495580000000000    0.3260290000000000 O
   0.7217440000000001    0.6462370000000000    0.0594390000000000 O
   0.3124660000000000    0.8907650000000000    0.4446730000000000 O
   0.9760660000000000    0.6665940000000000    0.0847670000000000 O
   0.5554750000000001    0.6455620000000000    0.4353570000000000 O
   0.7947160000000000    0.7445160000000000    0.5556850000000000 O
   0.4833730000000000    0.5327560000000000    0.1584240000000000 O
   0.6622400000000001    0.6032750000000000    0.3086630000000000 O
   0.8100980000000000    0.6042630000000000    0.1758710000000000 O
   0.8096340000000000    0.7451700000000000    0.6962920000000000 O
   0.0143190000000000    0.7429660000000000    0.6211540000000000 O
   0.4039360000000000    0.4835050000000000    0.3275600000000000 O
   0.7881430000000000    0.4832350000000000    0.0359220000000000 O
   0.9408390000000000    0.6028730000000000    0.3160810000000000 O
   0.0598570000000000    0.6717200000000000    0.4462250000000000 O
   0.4639740000000000    0.3722180000000000    0.0544030000000000 O
   0.3077430000000000    0.3496700000000000    0.1647360000000000 O
   0.1912640000000000    0.6406130000000000    0.3240680000000000 O
   0.7550150000000000    0.5341390000000000    0.4453840000000000 O
   0.7884460000000000    0.5777230000000000    0.5946900000000001 O
   0.0580550000000000    0.5348130000000000    0.1662930000000000 O
   0.5645590000000000    0.3910190000000000    0.1835300000000000 O
   0.5334840000000000    0.3730810000000000    0.4292740000000000 O
   0.6830510000000000    0.3866760000000000    0.3200190000000000 O
   0.8340919999999999    0.3900800000000000    0.1932580000000000 O
   0.0390210000000000    0.4885120000000000    0.3764250000000000 O
   0.9470440000000000    0.3503930000000000    0.0712860000000000 O
   0.1948540000000000    0.1039470000000000    0.0609980000000000 O
   0.4498290000000000    0.1688590000000000    0.0578390000000000 O
   0.0644390000000000    0.3726930000000000    0.2091770000000000 O
   0.7684200000000000    0.3515120000000000    0.4396560000000000 O
   0.3395350000000000    0.1436920000000000    0.1849740000000000 O
   0.4427350000000000    0.1694360000000000    0.3310710000000000 O
   0.6987360000000000    0.1453110000000000    0.0743010000000000 O
   0.3289230000000000    0.9839530000000000    0.0779860000000000 O
   0.8631250000000000    0.1717490000000000    0.1956040000000000 O
   0.6805300000000000    0.1450990000000000    0.3098980000000000 O
   0.5420670000000000    0.1009910000000000    0.4267260000000000 O
   0.9124480000000000    0.1016990000000000    0.0675070000000000 O
   0.4501270000000000    0.9830290000000000    0.2856790000000000 O
   0.6941020000000000    0.9832300000000000    0.1275110000000000 O
   0.2976580000000000    0.7484200000000000    0.0568870000000000 O
   0.3064180000000000    0.7481710000000000    0.1987070000000000 O
   0.5174580000000000    0.7456770000000000    0.1204050000000000 O
   0.2920690000000000    0.5789590000000000    0.0946570000000000 O
