Li8 H16 S8 N8 O24
1.0
   5.1841840000000001    0.0000000000000000    0.0000000000000000
   0.0000000000000000    8.6024519999999995    0.0000000000000000
   0.0000000000000000    0.0000000000000000   16.9577999999999989
Li H S N O
8 16 8 8 24
direct
   0.4495330000000000    0.2752260000000000    0.4029040000000000 Li
   0.5504670000000000    0.7752260000000000    0.5970960000000000 Li
   0.4495330000000000    0.7752260000000000    0.0970960000000000 Li
   0.5504670000000000    0.2752260000000000    0.9029040000000000 Li
   0.9586350000000000    0.4716420000000000    0.3477030000000000 Li
   0.0413650000000000    0.9716420000000000    0.6522970000000000 Li
   0.9586350000000000    0.9716420000000000    0.1522970000000000 Li
   0.0413650000000000    0.4716420000000000    0.8477030000000000 Li
   0.2007900000000000    0.9361110000000000    0.3839850000000000 H
   0.7992100000000000    0.4361110000000000    0.6160150000000000 H
   0.2007900000000000    0.4361110000000000    0.1160150000000000 H
   0.7992100000000000    0.9361110000000000    0.8839850000000000 H
   0.4858120000000000    0.7236530000000000    0.2978490000000000 H
   0.5141880000000000    0.2236530000000000    0.7021510000000000 H
   0.4858120000000000    0.2236530000000000    0.2021510000000000 H
   0.5141880000000000    0.7236530000000000    0.7978490000000000 H
   0.8607780000000000    0.0651050000000000    0.5144700000000000 H
   0.1392220000000000    0.5651050000000000    0.4855300000000000 H
   0.8607780000000000    0.5651050000000000    0.9855300000000000 H
   0.1392220000000000    0.0651050000000000    0.0144700000000000 H
   0.8870190000000000    0.8932830000000000    0.3853660000000000 H
   0.1129810000000000    0.3932830000000000    0.6146340000000000 H
   0.8870190000000000    0.3932830000000000    0.1146340000000000 H
   0.1129810000000000    0.8932830000000000    0.8853660000000000 H
   0.4851510000000000    0.6375800000000000    0.4154310000000000 S
   0.5148490000000000    0.1375800000000000    0.5845690000000000 S
   0.4851510000000000    0.1375800000000000    0.0845690000000000 S
   0.5148490000000000    0.6375800000000000    0.9154310000000000 S
   0.9501480000000000    0.1213800000000000    0.3300620000000000 S
   0.0498520000000000    0.6213800000000000    0.6699380000000000 S
   0.9501480000000000    0.6213800000000000    0.1699380000000000 S
   0.0498520000000000    0.1213800000000000    0.8300620000000000 S
   0.4976870000000000    0.7664900000000000    0.3543950000000000 N
   0.5023130000000000    0.2664900000000000    0.6456050000000000 N
   0.4976870000000000    0.2664900000000000    0.1456050000000000 N
   0.5023130000000000    0.7664900000000000    0.8543950000000000 N
   0.0182110000000000    0.9815080000000000    0.3946010000000000 N
   0.9817890000000000    0.4815080000000000    0.6053990000000000 N
   0.0182110000000000    0.4815080000000000    0.1053990000000000 N
   0.9817890000000000    0.9815080000000000    0.8946010000000000 N
   0.1759720000000000    0.5865700000000000    0.4292730000000000 O
   0.8240280000000000    0.0865700000000000    0.5707270000000000 O
   0.1759720000000000    0.0865700000000000    0.0707270000000000 O
   0.8240280000000000    0.5865700000000000    0.9292730000000000 O
   0.5644749999999999    0.6924010000000000    0.4927890000000000 O
   0.4355250000000000    0.1924010000000000    0.5072110000000000 O
   0.5644749999999999    0.1924010000000000    0.0072110000000000 O
   0.4355250000000000    0.6924010000000000    0.9927890000000000 O
   0.6032670000000000    0.4864330000000000    0.3923880000000000 O
   0.3967330000000000    0.9864330000000000    0.6076120000000000 O
   0.6032670000000000    0.9864330000000000    0.1076120000000000 O
   0.3967330000000000    0.4864330000000000    0.8923880000000000 O
   0.6741800000000000    0.1501830000000000    0.3395780000000000 O
   0.3258200000000000    0.6501830000000000    0.6604220000000000 O
   0.6741800000000000    0.6501830000000000    0.1604220000000000 O
   0.3258200000000000    0.1501830000000000    0.8395780000000000 O
   0.1059670000000000    0.2571550000000000    0.3553630000000000 O
   0.8940330000000000    0.7571550000000000    0.6446370000000000 O
   0.1059670000000000    0.7571550000000000    0.1446370000000000 O
   0.8940330000000000    0.2571550000000000    0.8553630000000000 O
   0.0198260000000000    0.0723790000000000    0.2502010000000000 O
   0.9801740000000000    0.5723790000000000    0.7497990000000000 O
   0.0198260000000000    0.5723790000000000    0.2497990000000000 O
   0.9801740000000000    0.0723790000000000    0.7502010000000000 O
