pymatgen with grid density = 1386 / number of atoms
0
Gamma
4 5 2
