Li2 Si2 P2 C2 O14
1.0
   6.0301289999999996    0.0000000000000000    0.0000000000000000
   0.0000000000000000    4.9686810000000001    0.0000000000000000
   0.0000000000000000    0.6943340000000000    8.4090030000000002
Li Si P C O
2 2 2 2 14
direct
   0.4782340000000000    0.7680979999999999    0.8054640000000000 Li
   0.9782340000000000    0.2319020000000000    0.1945360000000000 Li
   0.2481020000000000    0.2113350000000000    0.6660790000000000 Si
   0.7481020000000000    0.7886649999999999    0.3339210000000000 Si
   0.7542620000000000    0.2639500000000000    0.5671389999999999 P
   0.2542620000000000    0.7360500000000000    0.4328610000000000 P
   0.2515440000000000    0.2733730000000000    0.9310570000000000 C
   0.7515440000000000    0.7266270000000000    0.0689430000000000 C
   0.7346650000000000    0.6867310000000000    0.9272230000000000 O
   0.2531410000000000    0.0363240000000000    0.8668670000000001 O
   0.2635100000000000    0.4651630000000000    0.8089730000000001 O
   0.9567790000000000    0.2029030000000000    0.6727900000000000 O
   0.5519180000000000    0.1921420000000000    0.6728220000000000 O
   0.2583800000000000    0.9004040000000000    0.5807680000000000 O
   0.7516130000000000    0.5689020000000000    0.5071140000000000 O
   0.2516130000000000    0.4310980000000000    0.4928860000000000 O
   0.7583800000000001    0.0995960000000000    0.4192320000000000 O
   0.0519180000000000    0.8078580000000000    0.3271780000000000 O
   0.4567790000000000    0.7970970000000001    0.3272100000000000 O
   0.7635100000000000    0.5348370000000000    0.1910270000000000 O
   0.7531409999999999    0.9636760000000000    0.1331330000000000 O
   0.2346650000000000    0.3132690000000000    0.0727770000000000 O
