pymatgen with grid density = 1439 / number of atoms
0
Monkhorst
6 4 6
