Sr1 Li1 Al1 O3
1.0
   3.6513770000000001    0.5935420000000000   -0.0558680000000000
   0.5440480000000000    5.1453090000000001    0.5440480000000000
  -0.0558680000000000    0.5935420000000000    3.6513770000000001
Sr Li Al O
1 1 1 3
direct
   0.9169690000000000    0.9188269999999999    0.9169690000000000 Sr
   0.1790800000000000    0.3294430000000000    0.1790800000000000 Li
   0.5531690000000000    0.5718290000000000    0.5531690000000000 Al
   0.5955390000000000    0.4935360000000000    0.0831340000000000 O
   0.4054440000000000    0.9428310000000000    0.4054440000000000 O
   0.0831340000000000    0.4935360000000000    0.5955390000000000 O
