K2 Li1 H2 Se2 O6
1.0
   5.1809580000000004    0.2562900000000000   -1.7048030000000001
  -0.4045030000000000    5.8698290000000002   -1.9679409999999999
  -0.0649370000000000    0.1189620000000000    7.4594779999999998
K Li H Se O
2 1 2 2 6
direct
   0.2743990000000000    0.6591230000000000    0.1733990000000000 K
   0.6777380000000000    0.3173910000000000    0.8938280000000000 K
   0.6826510000000000    0.0219400000000000    0.3111280000000000 Li
   0.2217010000000000    0.0988030000000000    0.0040730000000000 H
   0.7549620000000000    0.7906750000000000    0.0169970000000000 H
   0.1700500000000000    0.2736980000000000    0.4193370000000000 Se
   0.0284360000000000    0.8618810000000000    0.6713380000000000 Se
   0.1780850000000000    0.1289990000000000    0.8719860000000000 O
   0.7298490000000000    0.7472100000000000    0.1253370000000000 O
   0.8529220000000000    0.2876650000000000    0.2932840000000000 O
   0.9872570000000001    0.6999750000000000    0.8037400000000000 O
   0.3180050000000000    0.1234750000000000    0.2484250000000000 O
   0.7364450000000000    0.9683310000000001    0.5745350000000000 O
