Li12 Bi4 B32 O60
1.0
  11.9883469999999992    0.0000000000000000    0.0000000000000000
   0.0000000000000000    9.6251329999999999    0.0000000000000000
   0.0000000000000000    0.1259060000000000   11.7062639999999991
Li Bi B O
12 4 32 60
direct
   0.9318230000000000    0.0725310000000000    0.5955600000000000 Li
   0.3047900000000000    0.1041340000000000    0.5406280000000000 Li
   0.5681770000000000    0.0725310000000000    0.0955600000000000 Li
   0.1952100000000000    0.1041340000000000    0.0406280000000000 Li
   0.7682990000000000    0.4978560000000000    0.6814519999999999 Li
   0.7317010000000000    0.4978560000000000    0.1814520000000000 Li
   0.2682990000000000    0.5021440000000000    0.8185480000000001 Li
   0.2317010000000000    0.5021440000000000    0.3185480000000000 Li
   0.8047900000000000    0.8958660000000001    0.9593720000000000 Li
   0.4318230000000000    0.9274690000000000    0.9044400000000000 Li
   0.6952100000000000    0.8958660000000001    0.4593720000000000 Li
   0.0681770000000000    0.9274690000000000    0.4044400000000000 Li
   0.8561360000000000    0.2517800000000000    0.9577710000000000 Bi
   0.6438640000000000    0.2517800000000000    0.4577710000000000 Bi
   0.3561360000000000    0.7482200000000000    0.5422290000000000 Bi
   0.1438640000000000    0.7482200000000000    0.0422290000000000 Bi
   0.6487800000000000    0.1134540000000000    0.8916200000000000 B
   0.8512200000000000    0.1134540000000000    0.3916200000000000 B
   0.2656900000000000    0.1311640000000000    0.7732120000000000 B
   0.2343100000000000    0.1311640000000000    0.2732120000000000 B
   0.4645240000000000    0.1779670000000000    0.8088290000000000 B
   0.0354760000000000    0.1779670000000000    0.3088290000000000 B
   0.0919520000000000    0.1867470000000000    0.8741330000000000 B
   0.6393750000000000    0.2473220000000000    0.7127170000000000 B
   0.4080480000000000    0.1867470000000000    0.3741330000000000 B
   0.8606250000000000    0.2473220000000000    0.2127170000000000 B
   0.1162690000000000    0.2620460000000000    0.6776140000000000 B
   0.3837310000000000    0.2620460000000000    0.1776140000000000 B
   0.3961480000000000    0.3271110000000000    0.9762340000000000 B
   0.1038520000000000    0.3271110000000000    0.4762340000000000 B
   0.7198550000000000    0.5350950000000000    0.8946410000000000 B
   0.7801450000000000    0.5350950000000000    0.3946410000000000 B
   0.2198550000000000    0.4649050000000000    0.6053590000000000 B
   0.2801450000000000    0.4649050000000000    0.1053590000000000 B
   0.8961479999999999    0.6728890000000000    0.5237660000000000 B
   0.6038520000000001    0.6728890000000000    0.0237660000000000 B
   0.6162690000000000    0.7379540000000000    0.8223860000000000 B
   0.8837310000000000    0.7379540000000000    0.3223860000000000 B
   0.1393750000000000    0.7526780000000000    0.7872830000000000 B
   0.5919520000000000    0.8132530000000000    0.6258670000000000 B
   0.3606250000000000    0.7526780000000000    0.2872830000000000 B
   0.9080480000000000    0.8132530000000000    0.1258670000000000 B
   0.9645240000000000    0.8220330000000000    0.6911710000000000 B
   0.5354760000000000    0.8220330000000000    0.1911710000000000 B
   0.7656900000000000    0.8688360000000001    0.7267880000000000 B
   0.7343100000000000    0.8688360000000001    0.2267880000000000 B
   0.1487800000000000    0.8865459999999999    0.6083800000000000 B
   0.3512200000000000    0.8865459999999999    0.1083800000000000 B
   0.5356520000000000    0.0919360000000000    0.8887200000000000 O
   0.7115340000000000    0.0827540000000000    0.9853930000000000 O
   0.3732680000000000    0.0823100000000000    0.7756170000000000 O
   0.9643480000000000    0.0919360000000000    0.3887200000000000 O
   0.7884660000000000    0.0827540000000000    0.4853930000000000 O
   0.1267320000000000    0.0823100000000000    0.2756170000000000 O
   0.2074270000000000    0.1516320000000000    0.8742810000000000 O
   0.7028040000000000    0.1841060000000000    0.8008960000000001 O
   0.2925730000000000    0.1516320000000000    0.3742810000000000 O
   0.7971960000000000    0.1841060000000000    0.3008960000000000 O
   0.0422350000000000    0.1759950000000000    0.9764090000000000 O
   0.4577650000000000    0.1759950000000000    0.4764090000000000 O
   0.2123690000000000    0.1581650000000000    0.6717140000000000 O
   0.5279520000000000    0.2272780000000000    0.7105340000000000 O
   0.2876310000000000    0.1581650000000000    0.1717140000000000 O
   0.9720480000000000    0.2272780000000000    0.2105340000000000 O
   0.6942870000000000    0.3224730000000000    0.6293650000000000 O
   0.0577200000000000    0.2565020000000000    0.5678210000000000 O
   0.8057130000000000    0.3224730000000000    0.1293650000000000 O
   0.0419540000000000    0.2269940000000000    0.7726810000000000 O
   0.4422800000000000    0.2565020000000000    0.0678210000000000 O
   0.4580460000000000    0.2269940000000000    0.2726810000000000 O
   0.4183370000000000    0.3025870000000000    0.8647160000000000 O
   0.0816630000000000    0.3025870000000000    0.3647160000000000 O
   0.8032090000000000    0.4457460000000000    0.8705990000000000 O
   0.6967910000000000    0.4457460000000000    0.3705990000000000 O
   0.1695060000000000    0.3986270000000000    0.6972170000000000 O
   0.3169710000000000    0.4345710000000000    0.9937760000000000 O
   0.3304940000000000    0.3986270000000000    0.1972170000000000 O
   0.1830290000000000    0.4345710000000000    0.4937760000000000 O
   0.8169710000000000    0.5654290000000000    0.5062240000000000 O
   0.6695060000000000    0.6013730000000000    0.8027830000000000 O
   0.6830290000000000    0.5654290000000000    0.0062240000000000 O
   0.8304940000000000    0.6013730000000000    0.3027830000000000 O
   0.3032090000000000    0.5542540000000000    0.6294010000000000 O
   0.1967910000000000    0.5542540000000000    0.1294010000000000 O
   0.9183370000000000    0.6974129999999999    0.6352840000000000 O
   0.5816630000000000    0.6974129999999999    0.1352840000000000 O
   0.5419540000000000    0.7730060000000000    0.7273190000000000 O
   0.5577200000000000    0.7434980000000000    0.9321790000000000 O
   0.9580460000000000    0.7730060000000000    0.2273190000000000 O
   0.1942870000000000    0.6775270000000000    0.8706350000000000 O
   0.9422800000000000    0.7434980000000000    0.4321790000000000 O
   0.3057130000000000    0.6775270000000000    0.3706350000000000 O
   0.0279520000000000    0.7727220000000000    0.7894660000000000 O
   0.7123690000000000    0.8418350000000000    0.8282860000000000 O
   0.4720480000000000    0.7727220000000000    0.2894660000000000 O
   0.7876310000000000    0.8418350000000000    0.3282860000000000 O
   0.5422350000000000    0.8240050000000000    0.5235910000000000 O
   0.9577650000000000    0.8240050000000000    0.0235910000000000 O
   0.2028040000000000    0.8158940000000000    0.6991039999999999 O
   0.7074270000000000    0.8483680000000000    0.6257190000000000 O
   0.2971960000000000    0.8158940000000000    0.1991040000000000 O
   0.7925730000000000    0.8483680000000000    0.1257190000000000 O
   0.8732680000000000    0.9176900000000000    0.7243830000000000 O
   0.2115340000000000    0.9172460000000000    0.5146070000000000 O
   0.0356520000000000    0.9080640000000000    0.6112800000000000 O
   0.6267320000000000    0.9176900000000000    0.2243830000000000 O
   0.2884660000000000    0.9172460000000000    0.0146070000000000 O
   0.4643480000000000    0.9080640000000000    0.1112800000000000 O
