Li8 Bi4 B20 O40
1.0
  16.4200499999999998    0.0000000000000000    0.0000000000000000
   0.0000000000000000    7.2587370000000000    0.0000000000000000
   0.0000000000000000    0.3328860000000000    7.2532680000000003
Li Bi B O
8 4 20 40
direct
   0.8414480000000000    0.9847450000000000    0.0891420000000000 Li
   0.6585520000000000    0.4847450000000000    0.0891420000000000 Li
   0.0857460000000000    0.3909500000000000    0.3072650000000000 Li
   0.4142540000000000    0.8909500000000000    0.3072650000000000 Li
   0.5857460000000000    0.1090500000000000    0.6927350000000000 Li
   0.9142540000000000    0.6090500000000000    0.6927350000000000 Li
   0.3414480000000000    0.5152550000000000    0.9108579999999999 Li
   0.1585520000000000    0.0152550000000000    0.9108579999999999 Li
   0.8751139999999999    0.4769800000000000    0.1686940000000000 Bi
   0.6248860000000001    0.9769800000000000    0.1686940000000000 Bi
   0.3751140000000000    0.0230200000000000    0.8313060000000000 Bi
   0.1248860000000000    0.5230200000000000    0.8313060000000000 Bi
   0.9789250000000000    0.0783770000000000    0.1974020000000000 B
   0.5210750000000000    0.5783770000000000    0.1974020000000000 B
   0.2315360000000000    0.4855910000000000    0.2295090000000000 B
   0.2684640000000000    0.9855910000000000    0.2295090000000000 B
   0.4789250000000000    0.2563340000000000    0.2592990000000000 B
   0.0210750000000000    0.7563340000000000    0.2592990000000000 B
   0.3789630000000000    0.5071140000000000    0.3106130000000000 B
   0.1210370000000000    0.0071140000000000    0.3106130000000000 B
   0.7257670000000001    0.4780440000000000    0.4512550000000000 B
   0.7742329999999999    0.9780440000000000    0.4512550000000000 B
   0.2257670000000000    0.0219560000000000    0.5487450000000000 B
   0.2742330000000000    0.5219560000000000    0.5487450000000000 B
   0.8789630000000000    0.9928860000000000    0.6893870000000000 B
   0.6210370000000000    0.4928860000000000    0.6893870000000000 B
   0.9789250000000000    0.2436660000000000    0.7407010000000001 B
   0.5210750000000000    0.7436660000000000    0.7407010000000001 B
   0.7315360000000000    0.0144090000000000    0.7704910000000000 B
   0.7684640000000000    0.5144090000000000    0.7704910000000000 B
   0.4789250000000000    0.4216230000000000    0.8025980000000000 B
   0.0210750000000000    0.9216230000000000    0.8025980000000000 B
   0.1664570000000000    0.4596860000000000    0.1158570000000000 O
   0.3335430000000000    0.9596860000000000    0.1158570000000000 O
   0.9149770000000000    0.1904860000000000    0.1418450000000000 O
   0.5850230000000000    0.6904860000000000    0.1418450000000000 O
   0.1901540000000000    0.0210210000000000    0.1704890000000000 O
   0.5370930000000000    0.3878550000000000    0.1877770000000000 O
   0.3098460000000000    0.5210210000000000    0.1704890000000000 O
   0.9629070000000000    0.8878549999999999    0.1877770000000000 O
   0.4977130000000000    0.0733150000000000    0.2657410000000000 O
   0.0022870000000000    0.5733150000000000    0.2657410000000000 O
   0.7446050000000000    0.4668630000000000    0.2686190000000000 O
   0.0538940000000000    0.1382380000000000    0.2518470000000000 O
   0.7553950000000000    0.9668630000000000    0.2686190000000000 O
   0.4461060000000000    0.6382380000000000    0.2518470000000000 O
   0.4064370000000000    0.3165680000000000    0.3220890000000000 O
   0.0935630000000000    0.8165680000000000    0.3220890000000000 O
   0.2141040000000000    0.4697800000000000    0.4207400000000000 O
   0.2858960000000000    0.9697800000000000    0.4207400000000000 O
   0.6492190000000000    0.4368030000000000    0.5109629999999999 O
   0.1492190000000000    0.0631970000000000    0.4890370000000000 O
   0.8507810000000000    0.9368030000000001    0.5109629999999999 O
   0.3507810000000000    0.5631969999999999    0.4890370000000000 O
   0.7141040000000000    0.0302200000000000    0.5792600000000000 O
   0.7858960000000000    0.5302200000000000    0.5792600000000000 O
   0.9064370000000000    0.1834320000000000    0.6779110000000000 O
   0.5935630000000000    0.6834320000000000    0.6779110000000000 O
   0.5538940000000000    0.3617620000000000    0.7481530000000000 O
   0.2446050000000000    0.0331370000000000    0.7313809999999999 O
   0.9461060000000000    0.8617620000000000    0.7481530000000000 O
   0.2553950000000000    0.5331370000000000    0.7313809999999999 O
   0.9977130000000000    0.4266850000000000    0.7342590000000000 O
   0.5022870000000000    0.9266850000000000    0.7342590000000000 O
   0.0370930000000000    0.1121450000000000    0.8122230000000000 O
   0.6901540000000000    0.4789790000000000    0.8295110000000000 O
   0.4629070000000000    0.6121450000000001    0.8122230000000000 O
   0.8098460000000000    0.9789790000000000    0.8295110000000000 O
   0.4149770000000000    0.3095140000000000    0.8581550000000000 O
   0.0850230000000000    0.8095140000000000    0.8581550000000000 O
   0.6664570000000000    0.0403140000000000    0.8841430000000000 O
   0.8335430000000000    0.5403140000000000    0.8841430000000000 O
