Cs4 Li4 B24 O40
1.0
   9.2553739999999998    0.0000000000000000    0.0000000000000000
   0.0000000000000000   10.5424679999999995    0.0000000000000000
   0.0000000000000000    0.0000000000000000   10.5647050000000000
Cs Li B O
4 4 24 40
direct
   0.3769180000000000    0.2472060000000000    0.2527050000000000 Cs
   0.6230820000000000    0.2472060000000000    0.7472950000000000 Cs
   0.8769180000000000    0.7527940000000000    0.7472950000000000 Cs
   0.1230820000000000    0.7527940000000000    0.2527050000000000 Cs
   0.8809470000000000    0.2490800000000000    0.2509760000000000 Li
   0.1190530000000000    0.2490800000000000    0.7490240000000000 Li
   0.3809470000000000    0.7509200000000000    0.7490240000000000 Li
   0.6190530000000000    0.7509200000000000    0.2509760000000000 Li
   0.9354250000000000    0.0183660000000000    0.0998640000000000 B
   0.0645750000000000    0.0183660000000000    0.9001360000000000 B
   0.4354250000000000    0.9816340000000000    0.9001360000000000 B
   0.5645750000000000    0.9816340000000000    0.0998640000000000 B
   0.7500000000000000    0.5000000000000000    0.2280650000000000 B
   0.2500000000000000    0.5000000000000000    0.7719350000000000 B
   0.0000000000000000    0.2714950000000000    0.5000000000000000 B
   0.5000000000000000    0.7285050000000000    0.5000000000000000 B
   0.0000000000000000    0.2279560000000000    0.0000000000000000 B
   0.5000000000000000    0.7720440000000000    0.0000000000000000 B
   0.7500000000000000    0.0000000000000000    0.2708410000000000 B
   0.2500000000000000    0.0000000000000000    0.7291590000000000 B
   0.1847720000000000    0.0999390000000000    0.5203960000000000 B
   0.8152280000000000    0.0999390000000000    0.4796040000000000 B
   0.6847720000000000    0.9000610000000000    0.4796040000000000 B
   0.3152280000000000    0.9000610000000000    0.5203960000000000 B
   0.5645140000000000    0.5192980000000000    0.3996530000000000 B
   0.4354860000000000    0.5192980000000000    0.6003470000000000 B
   0.0645140000000000    0.4807020000000000    0.6003470000000000 B
   0.9354860000000000    0.4807020000000000    0.3996530000000000 B
   0.8146679999999999    0.3997820000000000    0.0195210000000000 B
   0.1853320000000000    0.3997820000000000    0.9804790000000000 B
   0.3146680000000000    0.6002180000000000    0.9804790000000000 B
   0.6853320000000001    0.6002180000000000    0.0195210000000000 B
   0.1167450000000000    0.1899140000000000    0.4497140000000000 O
   0.8832550000000000    0.1899140000000000    0.5502860000000001 O
   0.6167450000000000    0.8100860000000000    0.5502860000000001 O
   0.3832550000000000    0.8100860000000000    0.4497140000000000 O
   0.1168670000000000    0.3091140000000000    0.0506300000000000 O
   0.8831329999999999    0.3091140000000000    0.9493700000000000 O
   0.6168670000000001    0.6908860000000000    0.9493700000000000 O
   0.3831330000000000    0.6908860000000000    0.0506300000000000 O
   0.9478140000000000    0.3509240000000000    0.3939940000000000 O
   0.0521860000000000    0.3509240000000000    0.6060060000000000 O
   0.4478140000000000    0.6490760000000000    0.6060060000000000 O
   0.5521860000000000    0.6490760000000000    0.3939940000000000 O
   0.6329270000000000    0.4494450000000000    0.3095810000000000 O
   0.3670730000000000    0.4494450000000000    0.6904190000000000 O
   0.1329270000000000    0.5505550000000000    0.6904190000000000 O
   0.8670730000000000    0.5505550000000000    0.3095810000000000 O
   0.9480310000000000    0.1480070000000000    0.1060300000000000 O
   0.0519690000000000    0.1480070000000000    0.8939700000000000 O
   0.4480310000000000    0.8519930000000000    0.8939700000000000 O
   0.5519690000000000    0.8519930000000000    0.1060300000000000 O
   0.8041730000000000    0.1057910000000000    0.3503120000000000 O
   0.1958270000000000    0.1057910000000000    0.6496880000000000 O
   0.3041730000000000    0.8942090000000000    0.6496880000000000 O
   0.6958270000000000    0.8942090000000000    0.3503120000000000 O
   0.6334370000000000    0.0514540000000000    0.1899990000000000 O
   0.3665630000000000    0.0514540000000000    0.8100010000000000 O
   0.1334370000000000    0.9485460000000000    0.8100010000000000 O
   0.8665630000000000    0.9485460000000000    0.1899990000000000 O
   0.8036510000000000    0.3938610000000000    0.1489160000000000 O
   0.1963490000000000    0.3938610000000000    0.8510840000000000 O
   0.3036510000000000    0.6061390000000000    0.8510840000000000 O
   0.6963490000000000    0.6061390000000000    0.1489160000000000 O
   0.2500000000000000    0.0000000000000000    0.4538920000000000 O
   0.7500000000000000    0.0000000000000000    0.5461080000000000 O
   0.0000000000000000    0.9514120000000000    0.0000000000000000 O
   0.5000000000000000    0.0485880000000000    0.0000000000000000 O
   0.5000000000000000    0.4527120000000000    0.5000000000000000 O
   0.0000000000000000    0.5472880000000000    0.5000000000000000 O
   0.7500000000000000    0.5000000000000000    0.9529420000000000 O
   0.2500000000000000    0.5000000000000000    0.0470580000000000 O
