ALGO = Fast
EDIFF = 0.0007
ENCUT = 520
IBRION = 2
ISIF = 3
ISMEAR = -5
ISPIN = 2
LASPH = True
LMAXMIX = 6
LORBIT = 11
LREAL = Auto
LWAVE = False
MAGMOM = 2*-0.002 2*-0.008 2*-0.014 2*0.071 2*0.203 2*0.388 2*0.206
NELM = 100
NSW = 99
PREC = Accurate
SIGMA = 0.05
