Li2 Bi2 B4 O10
1.0
   4.3929049999999998    0.0000000000000000    0.0000000000000000
   0.0000000000000000    5.3562230000000000    0.0000000000000000
   0.0000000000000000    0.7286750000000000    7.5444709999999997
Li Bi B O
2 2 4 10
direct
   0.3278830000000000    0.8392450000000000    0.1101500000000000 Li
   0.8278830000000000    0.1607550000000000    0.8898500000000000 Li
   0.3561110000000000    0.8763210000000000    0.7063170000000000 Bi
   0.8561110000000000    0.1236790000000000    0.2936830000000000 Bi
   0.7954460000000000    0.6118670000000000    0.9350840000000000 B
   0.3344280000000000    0.5652710000000000    0.4086170000000000 B
   0.8344279999999999    0.4347290000000000    0.5913830000000000 B
   0.2954460000000000    0.3881330000000000    0.0649160000000000 B
   0.6702730000000000    0.8500400000000000    0.9633340000000000 O
   0.2950610000000000    0.8442830000000000    0.3687910000000000 O
   0.7271820000000000    0.5867350000000000    0.7360300000000000 O
   0.1305230000000000    0.5987760000000000    0.9609240000000000 O
   0.6694369999999999    0.5173470000000000    0.4273190000000000 O
   0.1694370000000000    0.4826530000000000    0.5726810000000000 O
   0.6305229999999999    0.4012240000000000    0.0390760000000000 O
   0.2271820000000000    0.4132650000000000    0.2639700000000000 O
   0.7950610000000000    0.1557170000000000    0.6312090000000000 O
   0.1702730000000000    0.1499600000000000    0.0366660000000000 O
