pymatgen with grid density = 840 / number of atoms
0
Gamma
2 2 1
