Li4 B4 S16 Cl16 O48
1.0
   8.6337150000000005    0.0000000000000000    0.0000000000000000
   0.0000000000000000    9.0557330000000000    0.0000000000000000
   0.0000000000000000    0.5855620000000000   21.2837460000000007
Li B S Cl O
4 4 16 16 48
direct
   0.7503220000000000    0.0887440000000000    0.4384570000000000 Li
   0.2496780000000000    0.9112560000000000    0.5615430000000000 Li
   0.2503220000000000    0.9112560000000000    0.0615430000000000 Li
   0.7496780000000000    0.0887440000000000    0.9384570000000000 Li
   0.2550960000000000    0.3491770000000000    0.0884130000000000 B
   0.7449040000000000    0.6508230000000000    0.9115870000000000 B
   0.2449040000000000    0.3491770000000000    0.5884130000000000 B
   0.7550960000000000    0.6508230000000000    0.4115870000000000 B
   0.0187360000000000    0.8110600000000000    0.4387150000000000 S
   0.8213080000000000    0.3977720000000000    0.3504860000000000 S
   0.1064500000000000    0.2253580000000000    0.9867380000000000 S
   0.9812640000000000    0.1889400000000000    0.5612850000000000 S
   0.6786920000000000    0.3977720000000000    0.8504860000000000 S
   0.6255710000000000    0.8525620000000000    0.3279680000000000 S
   0.6064500000000000    0.7746420000000001    0.5132620000000000 S
   0.8935500000000000    0.7746420000000001    0.0132620000000000 S
   0.3935500000000000    0.2253580000000000    0.4867380000000000 S
   0.1786920000000000    0.6022280000000000    0.6495140000000000 S
   0.8744290000000000    0.8525620000000000    0.8279680000000000 S
   0.3744290000000000    0.1474380000000000    0.6720320000000000 S
   0.1255710000000000    0.1474380000000000    0.1720320000000000 S
   0.4812640000000000    0.8110600000000000    0.9387150000000000 S
   0.3213080000000000    0.6022280000000000    0.1495140000000000 S
   0.5187360000000000    0.1889400000000000    0.0612850000000000 S
   0.3283150000000000    0.7531730000000000    0.8721310000000000 Cl
   0.1716850000000000    0.7531730000000000    0.3721310000000000 Cl
   0.7994700000000000    0.6416510000000000    0.0810830000000000 Cl
   0.2509630000000000    0.0610650000000000    0.7449010000000000 Cl
   0.7490370000000000    0.9389350000000000    0.2550990000000000 Cl
   0.2490370000000000    0.0610650000000000    0.2449010000000000 Cl
   0.2994700000000000    0.3583490000000000    0.4189170000000000 Cl
   0.8239800000000000    0.4284960000000000    0.7762829999999999 Cl
   0.7509630000000000    0.9389350000000000    0.7550990000000000 Cl
   0.1760200000000000    0.5715040000000000    0.2237170000000000 Cl
   0.8283150000000000    0.2468270000000000    0.6278690000000000 Cl
   0.3239800000000000    0.5715040000000000    0.7237170000000001 Cl
   0.7005300000000000    0.6416510000000000    0.5810830000000000 Cl
   0.6716850000000000    0.2468270000000000    0.1278690000000000 Cl
   0.6760200000000000    0.4284960000000000    0.2762830000000000 Cl
   0.2005300000000000    0.3583490000000000    0.9189170000000000 Cl
   0.5937690000000000    0.6772520000000000    0.9428140000000000 O
   0.7549860000000000    0.7338340000000000    0.8510980000000000 O
   0.8070570000000000    0.2455650000000000    0.3700290000000000 O
   0.9062310000000000    0.6772520000000000    0.4428140000000000 O
   0.4438500000000000    0.0568200000000000    0.0845780000000000 O
   0.9692660000000000    0.4572740000000000    0.3331460000000000 O
   0.7010000000000000    0.9053250000000000    0.5093140000000000 O
   0.2010000000000000    0.0946750000000000    0.9906860000000000 O
   0.7990000000000000    0.9053250000000000    0.0093140000000000 O
   0.3986550000000000    0.8102960000000000    0.9970520000000000 O
   0.0555730000000000    0.7869900000000000    0.0264890000000000 O
   0.2549860000000000    0.2661660000000000    0.6489020000000000 O
   0.3070570000000000    0.7544350000000000    0.1299710000000000 O
   0.5100700000000000    0.2150570000000000    0.6969480000000000 O
   0.0100700000000000    0.7849429999999999    0.8030520000000000 O
   0.2410680000000000    0.5097620000000000    0.0979610000000000 O
   0.6929430000000000    0.2455650000000000    0.8700290000000001 O
   0.7410679999999999    0.4902380000000000    0.4020390000000000 O
   0.9438500000000000    0.9431800000000000    0.4154220000000000 O
   0.2990000000000000    0.0946750000000000    0.4906860000000000 O
   0.4899300000000000    0.7849429999999999    0.3030520000000000 O
   0.4692660000000000    0.5427260000000000    0.1668540000000000 O
   0.1929430000000000    0.7544350000000000    0.6299709999999999 O
   0.4444270000000000    0.7869900000000000    0.5264890000000000 O
   0.8986550000000000    0.1897040000000000    0.5029480000000000 O
   0.5307340000000000    0.4572740000000000    0.8331460000000001 O
   0.2589320000000000    0.5097620000000000    0.5979610000000000 O
   0.0561500000000000    0.0568200000000000    0.5845780000000000 O
   0.7450140000000000    0.7338340000000000    0.3510980000000000 O
   0.6083070000000000    0.9660540000000000    0.3737090000000000 O
   0.0307340000000000    0.5427260000000000    0.6668539999999999 O
   0.3791730000000000    0.3185630000000000    0.5464630000000000 O
   0.1083070000000000    0.0339460000000000    0.1262910000000000 O
   0.0937690000000000    0.3227480000000000    0.5571860000000000 O
   0.6013450000000000    0.1897040000000000    0.0029480000000000 O
   0.3916930000000000    0.0339460000000000    0.6262910000000000 O
   0.1208270000000000    0.3185630000000000    0.0464630000000000 O
   0.7589320000000001    0.4902380000000000    0.9020390000000000 O
   0.6208270000000000    0.6814370000000000    0.4535370000000000 O
   0.2450140000000000    0.2661660000000000    0.1489020000000000 O
   0.8916930000000000    0.9660540000000000    0.8737090000000000 O
   0.5555730000000000    0.2130100000000000    0.4735110000000000 O
   0.9899300000000000    0.2150570000000000    0.1969480000000000 O
   0.5561500000000000    0.9431800000000000    0.9154220000000000 O
   0.1013450000000000    0.8102960000000000    0.4970520000000000 O
   0.4062310000000000    0.3227480000000000    0.0571860000000000 O
   0.8791730000000000    0.6814370000000000    0.9535370000000000 O
   0.9444270000000000    0.2130100000000000    0.9735110000000000 O
