Li2 Al2 Si4 H4 O14
1.0
   5.0634329999999999    0.0000000000000000    0.0000000000000000
   0.3896620000000000    7.6342990000000004    0.0000000000000000
   0.3374310000000000    3.0999479999999999    7.9200499999999998
Li Al Si H O
2 2 4 4 14
direct
   0.6840760000000000    0.8146409999999999    0.2947140000000000 Li
   0.1640540000000000    0.1173530000000000    0.7133850000000000 Li
   0.1617440000000000    0.0621450000000000    0.3956690000000000 Al
   0.6670680000000000    0.0931710000000000    0.9053570000000000 Al
   0.1766430000000000    0.9225490000000000    0.1034230000000000 Si
   0.0975280000000000    0.5032080000000000    0.1490430000000000 Si
   0.6418410000000000    0.5111610000000000    0.9127250000000000 Si
   0.6629950000000000    0.9257200000000000    0.6274970000000000 Si
   0.6529570000000000    0.5163620000000000    0.2352830000000000 H
   0.5309170000000000    0.3880430000000000    0.7093420000000000 H
   0.1191550000000000    0.4789900000000000    0.6112790000000000 H
   0.2180500000000000    0.3870440000000000    0.4765690000000000 H
   0.3099050000000000    0.9532090000000000    0.2625590000000000 O
   0.8632060000000000    0.9948810000000000    0.0827230000000000 O
   0.2341810000000000    0.7030490000000000    0.1348090000000000 O
   0.4098240000000000    0.4501910000000000    0.0505650000000000 O
   0.1444630000000000    0.3095840000000000    0.3197450000000000 O
   0.8555400000000000    0.9422950000000000    0.4642090000000000 O
   0.8080950000000000    0.5831750000000000    0.2413910000000000 O
   0.8008670000000000    0.0341080000000000    0.7370420000000000 O
   0.3324050000000000    0.0458090000000000    0.9284150000000000 O
   0.6568810000000000    0.3526810000000000    0.8061800000000000 O
   0.9348080000000000    0.4831340000000000    0.9889460000000000 O
   0.6190130000000000    0.7049930000000000    0.7482730000000000 O
   0.3664840000000000    0.0134320000000000    0.5716080000000000 O
   0.2506980000000000    0.3913700000000000    0.5924509999999999 O
