pymatgen with grid density = 844 / number of atoms
0
Monkhorst
4 4 2
