pymatgen with grid density = 1342 / number of atoms
0
Gamma
4 3 4
