Li1 Al2 H4 Pb2 O4 F6
1.0
   6.1838280000000001   -0.1213820000000000   -1.8250569999999999
  -2.1064039999999999    6.8763940000000003   -0.3646420000000000
   0.1553350000000000   -0.1847030000000000    5.2962639999999999
Li Al H Pb O F
1 2 4 2 4 6
direct
   0.2017290000000000    0.0533670000000000    0.7009130000000000 Li
   0.1713570000000000    0.7082440000000000    0.1408200000000000 Al
   0.8325620000000000    0.3205980000000000    0.8382140000000000 Al
   0.2090020000000000    0.4743910000000000    0.7729009999999999 H
   0.8126640000000001    0.5128480000000000    0.2459650000000000 H
   0.0409940000000000    0.7258360000000000    0.6848180000000000 H
   0.8543070000000000    0.1662530000000000    0.2670430000000000 H
   0.6900010000000000    0.8337250000000000    0.8344600000000000 Pb
   0.3185680000000000    0.2703280000000000    0.2846770000000000 Pb
   0.1482680000000000    0.4703790000000000    0.9252110000000000 O
   0.8462980000000000    0.5452030000000000    0.0813580000000000 O
   0.0728690000000000    0.8219660000000000    0.8442360000000000 O
   0.8953120000000000    0.1617000000000000    0.1005570000000000 O
   0.1453810000000000    0.9142770000000000    0.3457980000000000 F
   0.8869440000000000    0.1312920000000000    0.6202100000000000 F
   0.2549670000000000    0.6128600000000000    0.4443170000000000 F
   0.7595180000000000    0.4469340000000000    0.5583250000000000 F
   0.4697090000000000    0.8189070000000001    0.1662380000000000 F
   0.5353820000000000    0.1682990000000000    0.7564400000000000 F
