pymatgen with grid density = 1063 / number of atoms
0
Gamma
4 3 2
