Cs4 Li10 B14 O28
1.0
   2.2361890000000000   -6.9154330000000002    0.0000000000000000
   2.2361890000000000    6.9154330000000002    0.0000000000000000
   0.0000000000000000    0.0000000000000000   21.6157859999999999
Cs Li B O
4 10 14 28
direct
   0.8302810000000000    0.2653050000000000    0.8471109999999999 Cs
   0.2653050000000000    0.8302810000000000    0.1528890000000000 Cs
   0.8302810000000000    0.2653050000000000    0.6528890000000001 Cs
   0.2653050000000000    0.8302810000000000    0.3471110000000000 Cs
   0.1866210000000000    0.9170290000000000    0.7500000000000000 Li
   0.9170290000000000    0.1866210000000000    0.2500000000000000 Li
   0.5864720000000000    0.5649110000000001    0.9381150000000000 Li
   0.5649110000000001    0.5864720000000000    0.0618850000000000 Li
   0.5864720000000000    0.5649110000000001    0.5618850000000000 Li
   0.5649110000000001    0.5864720000000000    0.4381150000000000 Li
   0.9917300000000000    0.1613890000000000    0.9933110000000001 Li
   0.1613890000000000    0.9917300000000000    0.0066890000000000 Li
   0.9917300000000000    0.1613890000000000    0.5066889999999999 Li
   0.1613890000000000    0.9917300000000000    0.4933110000000000 Li
   0.0957410000000000    0.0031260000000000    0.8716830000000000 B
   0.0031260000000000    0.0957410000000000    0.1283170000000000 B
   0.0957410000000000    0.0031260000000000    0.6283170000000000 B
   0.0031260000000000    0.0957410000000000    0.3716830000000000 B
   0.5842450000000000    0.5161350000000000    0.8084150000000000 B
   0.5161350000000000    0.5842450000000000    0.1915850000000000 B
   0.5842450000000000    0.5161350000000000    0.6915850000000000 B
   0.5161350000000000    0.5842450000000000    0.3084150000000000 B
   0.3544410000000000    0.7538780000000000    0.9956250000000000 B
   0.7538780000000000    0.3544410000000000    0.0043750000000000 B
   0.3544410000000000    0.7538780000000000    0.5043750000000000 B
   0.7538780000000000    0.3544410000000000    0.4956250000000000 B
   0.4251190000000000    0.6747339999999999    0.7500000000000000 B
   0.6747339999999999    0.4251190000000000    0.2500000000000000 B
   0.3296490000000000    0.7750860000000001    0.7500000000000000 O
   0.7750860000000001    0.3296490000000000    0.2500000000000000 O
   0.4760930000000000    0.6227600000000000    0.8059150000000000 O
   0.6227600000000000    0.4760930000000000    0.1940850000000000 O
   0.4760930000000000    0.6227600000000000    0.6940850000000000 O
   0.6227600000000000    0.4760930000000000    0.3059150000000000 O
   0.4582090000000000    0.0214600000000000    0.0034390000000000 O
   0.0214600000000000    0.4582090000000000    0.9965610000000000 O
   0.4582090000000000    0.0214600000000000    0.4965610000000000 O
   0.0214600000000000    0.4582090000000000    0.5034390000000000 O
   0.7264500000000000    0.5708100000000000    0.7500000000000000 O
   0.5708100000000000    0.7264500000000000    0.2500000000000000 O
   0.5364610000000000    0.7558260000000000    0.9883510000000000 O
   0.7558260000000000    0.5364610000000000    0.0116490000000000 O
   0.5364610000000000    0.7558260000000000    0.5116490000000000 O
   0.7558260000000000    0.5364610000000000    0.4883510000000000 O
   0.1553240000000000    0.1272670000000000    0.9280530000000000 O
   0.1272670000000000    0.1553240000000000    0.0719470000000000 O
   0.1553240000000000    0.1272670000000000    0.5719470000000000 O
   0.1272670000000000    0.1553240000000000    0.4280530000000000 O
   0.3066590000000000    0.1690680000000000    0.8223420000000000 O
   0.1690680000000000    0.3066590000000000    0.1776580000000000 O
   0.3066590000000000    0.1690680000000000    0.6776580000000000 O
   0.1690680000000000    0.3066590000000000    0.3223420000000000 O
   0.8053800000000000    0.6793550000000000    0.8621930000000000 O
   0.6793550000000000    0.8053800000000000    0.1378070000000000 O
   0.8053800000000000    0.6793550000000000    0.6378070000000000 O
   0.6793550000000000    0.8053800000000000    0.3621930000000000 O
