Li18 Sb6 P16 O58
1.0
   5.1020459999999996   -8.8370040000000003    0.0000000000000000
   5.1020459999999996    8.8370040000000003    0.0000000000000000
   0.0000000000000000    0.0000000000000000   14.1435890000000004
Li Sb P O
18 6 16 58
direct
   0.0000000000000000    0.0000000000000000    0.0000000000000000 Li
   0.0000000000000000    0.0000000000000000    0.5000000000000000 Li
   0.3291760000000000    0.2265250000000000    0.0619290000000000 Li
   0.3291760000000000    0.1026510000000000    0.5619290000000000 Li
   0.7734750000000000    0.6708240000000000    0.5619290000000000 Li
   0.6666670000000000    0.3333330000000000    0.8798830000000000 Li
   0.6666670000000000    0.3333330000000000    0.3798830000000000 Li
   0.8973490000000000    0.6708240000000000    0.0619290000000000 Li
   0.7734750000000000    0.1026510000000000    0.0619290000000000 Li
   0.1026510000000000    0.7734750000000000    0.4380710000000000 Li
   0.8973490000000000    0.2265250000000000    0.5619290000000000 Li
   0.2265250000000000    0.8973490000000000    0.9380710000000000 Li
   0.1026510000000000    0.3291760000000000    0.9380710000000000 Li
   0.3333330000000000    0.6666670000000000    0.1201170000000000 Li
   0.3333330000000000    0.6666670000000000    0.6201170000000000 Li
   0.2265250000000000    0.3291760000000000    0.4380710000000000 Li
   0.6708240000000000    0.8973490000000000    0.4380710000000000 Li
   0.6708240000000000    0.7734750000000000    0.9380710000000000 Li
   0.4312720000000000    0.4312720000000000    0.2500000000000000 Sb
   0.5687280000000000    0.5687280000000000    0.7500000000000000 Sb
   0.4312720000000000    0.0000000000000000    0.7500000000000000 Sb
   0.5687280000000000    0.0000000000000000    0.2500000000000000 Sb
   0.0000000000000000    0.5687280000000000    0.2500000000000000 Sb
   0.0000000000000000    0.4312720000000000    0.7500000000000000 Sb
   0.3076110000000000    0.2203630000000000    0.8468430000000000 P
   0.3076110000000000    0.0872480000000000    0.3468430000000000 P
   0.7796370000000000    0.6923890000000000    0.3468430000000000 P
   0.6666670000000000    0.3333330000000000    0.6129340000000000 P
   0.6666670000000000    0.3333330000000000    0.1129340000000000 P
   0.9127520000000000    0.6923890000000000    0.8468430000000000 P
   0.0872480000000000    0.7796370000000000    0.6531570000000000 P
   0.7796370000000000    0.0872480000000000    0.8468430000000000 P
   0.2203630000000000    0.9127520000000000    0.1531570000000000 P
   0.9127520000000000    0.2203630000000000    0.3468430000000000 P
   0.0872480000000000    0.3076110000000000    0.1531570000000000 P
   0.3333330000000000    0.6666670000000000    0.3870660000000000 P
   0.3333330000000000    0.6666670000000000    0.8870660000000000 P
   0.2203630000000000    0.3076110000000000    0.6531570000000000 P
   0.6923890000000000    0.9127520000000000    0.6531570000000000 P
   0.6923890000000000    0.7796370000000000    0.1531570000000000 P
   0.2226900000000000    0.2226900000000000    0.7500000000000000 O
   0.2252630000000000    0.2175680000000000    0.5684979999999999 O
   0.3016190000000000    0.2359900000000000    0.3467780000000000 O
   0.2226900000000000    0.0000000000000000    0.2500000000000000 O
   0.2252630000000000    0.0076960000000000    0.0684980000000000 O
   0.3016190000000000    0.0656290000000000    0.8467780000000000 O
   0.4731850000000000    0.3483480000000000    0.8440080000000000 O
   0.5097250000000000    0.3059800000000000    0.1507920000000000 O
   0.6516520000000000    0.5268150000000000    0.3440080000000000 O
   0.7824320000000000    0.7747370000000000    0.0684980000000000 O
   0.7773099999999999    0.7773099999999999    0.2500000000000000 O
   0.7640100000000000    0.6983810000000000    0.8467780000000000 O
   0.5097250000000000    0.2037450000000000    0.6507920000000000 O
   0.4731850000000000    0.1248370000000000    0.3440080000000000 O
   0.6940200000000000    0.4902750000000000    0.6507920000000000 O
   0.6666670000000000    0.3333330000000000    0.5063810000000000 O
   0.6666670000000000    0.3333330000000000    0.0063810000000000 O
   0.7962550000000000    0.4902750000000000    0.1507920000000000 O
   0.6516520000000000    0.1248370000000000    0.8440080000000000 O
   0.6940200000000000    0.2037450000000000    0.1507920000000000 O
   0.9343710000000000    0.6983810000000000    0.3467780000000000 O
   0.0000000000000000    0.7773099999999999    0.7500000000000000 O
   0.9923040000000000    0.7747370000000000    0.5684979999999999 O
   0.0076960000000000    0.7824320000000000    0.9315020000000001 O
   0.8751630000000000    0.5268150000000000    0.8440080000000000 O
   0.7962550000000000    0.3059800000000000    0.6507920000000000 O
   0.0656290000000000    0.7640100000000000    0.1532220000000000 O
   0.8751630000000000    0.3483480000000000    0.3440080000000000 O
   0.7640100000000000    0.0656290000000000    0.3467780000000000 O
   0.2175680000000000    0.9923040000000000    0.4315020000000000 O
   0.7824320000000000    0.0076960000000000    0.5684979999999999 O
   0.7773099999999999    0.0000000000000000    0.7500000000000000 O
   0.2359900000000000    0.9343710000000000    0.6532220000000000 O
   0.1248370000000000    0.6516520000000000    0.6559920000000000 O
   0.9343710000000000    0.2359900000000000    0.8467780000000000 O
   0.2037450000000000    0.6940200000000000    0.3492080000000000 O
   0.1248370000000000    0.4731850000000000    0.1559920000000000 O
   0.9923040000000000    0.2175680000000000    0.0684980000000000 O
   0.0076960000000000    0.2252630000000000    0.4315020000000000 O
   0.0000000000000000    0.2226900000000000    0.2500000000000000 O
   0.0656290000000000    0.3016190000000000    0.6532220000000000 O
   0.3059800000000000    0.7962550000000000    0.8492080000000000 O
   0.3483480000000000    0.8751630000000000    0.1559920000000000 O
   0.2037450000000000    0.5097250000000000    0.8492080000000000 O
   0.3333330000000000    0.6666670000000000    0.4936190000000000 O
   0.3333330000000000    0.6666670000000000    0.9936190000000000 O
   0.3059800000000000    0.5097250000000000    0.3492080000000000 O
   0.5268150000000000    0.8751630000000000    0.6559920000000000 O
   0.4902750000000000    0.7962550000000000    0.3492080000000000 O
   0.2359900000000000    0.3016190000000000    0.1532220000000000 O
   0.2175680000000000    0.2252630000000000    0.9315020000000001 O
   0.3483480000000000    0.4731850000000000    0.6559920000000000 O
   0.4902750000000000    0.6940200000000000    0.8492080000000000 O
   0.5268150000000000    0.6516520000000000    0.1559920000000000 O
   0.6983810000000000    0.9343710000000000    0.1532220000000000 O
   0.7747370000000000    0.9923040000000000    0.9315020000000001 O
   0.6983810000000000    0.7640100000000000    0.6532220000000000 O
   0.7747370000000000    0.7824320000000000    0.4315020000000000 O
