ALGO = Fast
EDIFF = 0.0023
ENCUT = 520
IBRION = 2
ISIF = 3
ISMEAR = -5
ISPIN = 2
LASPH = True
LMAXMIX = 6
LORBIT = 11
LREAL = Auto
LWAVE = False
MAGMOM = 10*-0.0 1*0.064 1*0.063 1*0.029 1*0.027 2*-0.002 4*-0.005 2*-0.002 1*0.03 1*0.032 1*0.029 1*0.033 1*0.031 1*0.092 1*0.087 1*0.071 1*0.04 1*0.03 1*0.042 1*0.098 1*0.093 1*0.087 1*0.038 1*0.029 1*0.031 1*0.041 1*0.096 1*0.033 1*0.032 1*0.034 1*0.031 1*0.072
NELM = 100
NSW = 99
PREC = Accurate
SIGMA = 0.05
