ALGO = Fast
EDIFF = 0.004200000000000001
ENCUT = 520
IBRION = 2
ISIF = 3
ISMEAR = -5
ISPIN = 2
LASPH = True
LMAXMIX = 6
LORBIT = 11
LREAL = Auto
LWAVE = False
MAGMOM = 4*0.001 4*0.0 6*0.001 1*6.871 2*6.869 1*6.871 1*6.885 2*6.884 1*6.885 1*6.872 2*6.875 1*6.872 1*6.878 2*6.879 1*6.878 8*0.0 4*-0.014 2*-0.018 1*-0.015 2*-0.018 1*-0.015 1*-0.007 2*-0.006 1*-0.007 4*-0.012 4*-0.01 4*-0.007 4*-0.023 4*-0.013 4*-0.019 4*-0.013 4*-0.012
NELM = 100
NSW = 99
PREC = Accurate
SIGMA = 0.05
