Li14 Eu16 Si8 Cl14 O32
1.0
   8.5137052200000003    0.0000000000000000   -0.9124955400000000
   0.0000000000000000    9.5565731799999991    0.0000000000000000
   0.0306926000000000    0.0000000000000000   16.8792416400000000
Li Eu Si Cl O
14 16 8 14 32
direct
   0.2212113400000000    0.9296587700000000    0.7368629700000000 Li
   0.7790991500000000    0.4299243200000000    0.7632357200000000 Li
   0.7790991500000000    0.0700756800000000    0.2632357200000000 Li
   0.2212113400000000    0.5703412300000000    0.2368629700000000 Li
   0.1767350600000000    0.9977056800000000    0.8755625100000000 Li
   0.8207535500000001    0.4986760800000000    0.6241322800000000 Li
   0.8207535500000001    0.0013239200000000    0.1241322800000000 Li
   0.1767350600000000    0.5022943200000000    0.3755625100000000 Li
   0.2382911900000000    0.0978994200000000    0.0170090000000000 Li
   0.7641721100000000    0.6001489400000000    0.4848778900000000 Li
   0.7641721100000000    0.8998510600000000    0.9848778900000000 Li
   0.2382911900000000    0.4021005800000000    0.5170090000000001 Li
   0.5038324600000000    0.0178417700000000    0.9785826300000000 Li
   0.5038324600000000    0.4821582300000000    0.4785826300000000 Li
   0.1561582400000000    0.7568931800000001    0.0580232800000000 Eu
   0.8467801900000000    0.2543499300000000    0.4427989400000000 Eu
   0.8467801900000000    0.2456500700000000    0.9427989400000000 Eu
   0.1561582400000000    0.7431068199999999    0.5580232800000000 Eu
   0.3885379200000000    0.2857504500000000    0.7118231000000000 Eu
   0.6101045500000000    0.7829352800000000    0.7874345600000000 Eu
   0.6101045500000000    0.7170647200000000    0.2874345600000000 Eu
   0.3885379200000000    0.2142495500000000    0.2118231000000000 Eu
   0.3339013700000000    0.3930487600000000    0.9666155300000000 Eu
   0.6646456800000000    0.8922308500000000    0.5335635000000000 Eu
   0.6646456800000000    0.6077691500000000    0.0335635000000000 Eu
   0.3339013700000000    0.1069512400000000    0.4666155300000000 Eu
   0.1355943600000000    0.6222226100000000    0.8029987100000000 Eu
   0.8658343300000000    0.1221479800000000    0.6961237100000000 Eu
   0.8658343300000000    0.3778520200000000    0.1961237100000000 Eu
   0.1355943600000000    0.8777773900000000    0.3029987100000000 Eu
   0.3791267500000000    0.7974585500000000    0.9226560700000001 Si
   0.6215173300000000    0.2977539500000000    0.5770645800000000 Si
   0.6215173300000000    0.2022460500000000    0.0770645800000000 Si
   0.3791267500000000    0.7025414500000000    0.4226560700000000 Si
   0.8850226600000000    0.7490884300000000    0.6717560600000000 Si
   0.1151986800000000    0.2486601400000000    0.8283616600000000 Si
   0.1151986800000000    0.2513398600000000    0.3283616600000000 Si
   0.8850226600000000    0.7509115700000000    0.1717560600000000 Si
   0.3871091400000000    0.9788246400000000    0.6333379800000000 Cl
   0.6130996399999999    0.4784491700000000    0.8669959400000000 Cl
   0.6130996399999999    0.0215508300000000    0.3669959400000000 Cl
   0.3871091400000000    0.5211753600000000    0.1333379800000000 Cl
   0.0004570700000000    0.5006577500000000    0.0001867600000000 Cl
   0.0004570700000000    0.9993422500000000    0.5001867600000000 Cl
   0.6003573600000000    0.1007085300000000    0.8246609000000000 Cl
   0.3956704800000000    0.6005687800000000    0.6784085700000000 Cl
   0.3956704800000000    0.8994312200000000    0.1784085700000000 Cl
   0.6003573600000000    0.3992914700000000    0.3246609000000000 Cl
   0.0623431900000000    0.3605371600000000    0.6142369000000000 Cl
   0.9378873700000000    0.8608196600000000    0.8859086600000000 Cl
   0.9378873700000000    0.6391803400000000    0.3859086600000000 Cl
   0.0623431900000000    0.1394628400000000    0.1142369000000000 Cl
   0.4299428800000000    0.3081614900000000    0.5553236499999999 O
   0.5714908500000000    0.8105840600000001    0.9411099700000000 O
   0.5714908500000000    0.6894159399999999    0.4411099700000000 O
   0.4299428800000000    0.1918385100000000    0.0553236500000000 O
   0.8467590000000000    0.6160602400000000    0.7289042100000001 O
   0.1533868000000000    0.1158943900000000    0.7710171300000001 O
   0.1533868000000000    0.3841056100000000    0.2710171300000000 O
   0.8467590000000000    0.8839397600000000    0.2289042100000000 O
   0.2998909500000000    0.9241426700000001    0.9720402900000000 O
   0.7034105800000000    0.4214531600000000    0.5261701500000000 O
   0.7034105800000000    0.0785468400000000    0.0261701500000000 O
   0.2998909500000000    0.5758573299999999    0.4720402900000000 O
   0.2382592300000000    0.3787888000000000    0.8200916400000000 O
   0.7616903800000000    0.8790516000000000    0.6799794400000000 O
   0.7616903800000000    0.6209484000000000    0.1799794400000000 O
   0.2382592300000000    0.1212112000000000    0.3200916400000000 O
   0.3254282700000000    0.8218817100000000    0.8271679900000000 O
   0.6731290800000000    0.3227360600000000    0.6723583600000000 O
   0.6731290800000000    0.1772639400000000    0.1723583600000000 O
   0.3254282700000000    0.6781182900000000    0.3271679900000000 O
   0.3132707900000000    0.6472432200000000    0.9510794900000000 O
   0.6884379600000000    0.1459897500000000    0.5502142600000000 O
   0.6884379600000000    0.3540102500000000    0.0502142600000000 O
   0.3132707900000000    0.8527567800000000    0.4510794900000000 O
   0.1396989200000000    0.1957411500000000    0.9226659699999999 O
   0.8612155900000000    0.6960924200000000    0.5775492600000000 O
   0.8612155900000000    0.8039075800000000    0.0775492600000000 O
   0.1396989200000000    0.3042588500000000    0.4226659700000000 O
   0.0686763100000000    0.7035019600000000    0.1922597100000000 O
   0.9314712200000000    0.2042220100000000    0.3076501100000000 O
   0.9314712200000000    0.2957779900000000    0.8076501100000000 O
   0.0686763100000000    0.7964980400000000    0.6922597100000000 O
