Li8 Be6 P6 Cl2 O24
1.0
   8.1147440000000000    0.0000000000000000    0.0000000000000000
   0.0000000000000000    8.1147440000000000    0.0000000000000000
   0.0000000000000000    0.0000000000000000    8.1147440000000000
Li Be P Cl O
8 6 6 2 24
direct
   0.3247950000000000    0.3247950000000000    0.6752050000000001 Li
   0.6752050000000001    0.3247950000000000    0.3247950000000000 Li
   0.1752050000000000    0.8247949999999999    0.8247949999999999 Li
   0.8247949999999999    0.1752050000000000    0.8247949999999999 Li
   0.1752050000000000    0.1752050000000000    0.1752050000000000 Li
   0.8247949999999999    0.8247949999999999    0.1752050000000000 Li
   0.6752050000000001    0.6752050000000001    0.6752050000000001 Li
   0.3247950000000000    0.6752050000000001    0.3247950000000000 Li
   0.5000000000000000    0.7500000000000000    0.0000000000000000 Be
   0.2500000000000000    0.0000000000000000    0.5000000000000000 Be
   0.0000000000000000    0.5000000000000000    0.2500000000000000 Be
   0.5000000000000000    0.2500000000000000    0.0000000000000000 Be
   0.0000000000000000    0.5000000000000000    0.7500000000000000 Be
   0.7500000000000000    0.0000000000000000    0.5000000000000000 Be
   0.5000000000000000    0.0000000000000000    0.2500000000000000 P
   0.0000000000000000    0.2500000000000000    0.5000000000000000 P
   0.2500000000000000    0.5000000000000000    0.0000000000000000 P
   0.0000000000000000    0.7500000000000000    0.5000000000000000 P
   0.5000000000000000    0.0000000000000000    0.7500000000000000 P
   0.7500000000000000    0.5000000000000000    0.0000000000000000 P
   0.5000000000000000    0.5000000000000000    0.5000000000000000 Cl
   0.0000000000000000    0.0000000000000000    0.0000000000000000 Cl
   0.3641130000000000    0.0825760000000000    0.6440290000000000 O
   0.6358870000000000    0.9174240000000000    0.6440290000000000 O
   0.0825760000000000    0.6440290000000000    0.3641130000000000 O
   0.3641130000000000    0.9174240000000000    0.3559710000000000 O
   0.6358870000000000    0.0825760000000000    0.3559710000000000 O
   0.6440290000000000    0.3641130000000000    0.0825760000000000 O
   0.4174240000000000    0.8641130000000000    0.8559710000000000 O
   0.9174240000000000    0.3559710000000000    0.3641130000000000 O
   0.8559710000000000    0.5825760000000000    0.1358870000000000 O
   0.6440290000000000    0.6358870000000000    0.9174240000000000 O
   0.1358870000000000    0.8559710000000000    0.5825760000000000 O
   0.5825760000000000    0.1358870000000000    0.8559710000000000 O
   0.9174240000000000    0.6440290000000000    0.6358870000000000 O
   0.1358870000000000    0.1440290000000000    0.4174240000000000 O
   0.3559710000000000    0.6358870000000000    0.0825760000000000 O
   0.1440290000000000    0.5825760000000000    0.8641130000000000 O
   0.0825760000000000    0.3559710000000000    0.6358870000000000 O
   0.8559710000000000    0.4174240000000000    0.8641130000000000 O
   0.8641130000000000    0.1440290000000000    0.5825760000000000 O
   0.1440290000000000    0.4174240000000000    0.1358870000000000 O
   0.5825760000000000    0.8641130000000000    0.1440290000000000 O
   0.3559710000000000    0.3641130000000000    0.9174240000000000 O
   0.8641130000000000    0.8559710000000000    0.4174240000000000 O
   0.4174240000000000    0.1358870000000000    0.1440290000000000 O
