Li4 Te4 H20 O24
1.0
   7.6148189999999998    0.0000000000000000    0.0000000000000000
   0.0000000000000000    7.6981909999999996    0.0000000000000000
   0.0000000000000000    7.6965190000000003    7.6998319999999998
Li Te H O
4 4 20 24
direct
   0.9988570000000000    0.5086039999999999    0.9890110000000000 Li
   0.0011430000000000    0.5086039999999999    0.4890110000000000 Li
   0.5024240000000000    0.0123610000000000    0.4978360000000000 Li
   0.4975760000000000    0.0123610000000000    0.9978359999999999 Li
   0.4966910000000000    0.4905240000000000    0.9982760000000001 Te
   0.5033090000000000    0.4905240000000000    0.4982760000000000 Te
   0.9938920000000000    0.9878140000000000    0.5121210000000000 Te
   0.0061080000000000    0.9878140000000000    0.0121210000000000 Te
   0.2619310000000000    0.7793110000000000    0.9362590000000000 H
   0.2554660000000000    0.2180160000000000    0.5666960000000000 H
   0.7610730000000000    0.1505180000000000    0.2853270000000000 H
   0.7563750000000000    0.8500460000000000    0.2161640000000000 H
   0.7445340000000000    0.2180160000000000    0.0666960000000000 H
   0.7380690000000000    0.7793110000000000    0.4362590000000000 H
   0.2436250000000000    0.8500460000000000    0.7161640000000000 H
   0.2389270000000000    0.1505180000000000    0.7853270000000000 H
   0.2835860000000000    0.2557920000000000    0.2404620000000000 H
   0.2805260000000000    0.7400730000000000    0.2655920000000000 H
   0.7783390000000000    0.2389030000000000    0.5019200000000000 H
   0.7859090000000000    0.7731440000000001    0.9928200000000000 H
   0.7194739999999999    0.7400730000000000    0.7655920000000001 H
   0.7164140000000000    0.2557920000000000    0.7404620000000000 H
   0.2140910000000000    0.7731440000000001    0.4928200000000000 H
   0.2216610000000000    0.2389030000000000    0.0019200000000000 H
   0.5610360000000000    0.5301709999999999    0.2037230000000000 H
   0.0608510000000000    0.4379840000000000    0.2658750000000000 H
   0.4389640000000000    0.5301709999999999    0.7037230000000000 H
   0.9391490000000000    0.4379840000000000    0.7658750000000000 H
   0.4101360000000000    0.2242370000000000    0.2372720000000000 O
   0.4082760000000000    0.7750780000000000    0.2699450000000000 O
   0.9073540000000000    0.1994820000000000    0.5380580000000000 O
   0.9110790000000000    0.8159070000000000    0.9543500000000000 O
   0.5917240000000000    0.7750780000000000    0.7699450000000000 O
   0.5898640000000001    0.2242370000000000    0.7372720000000000 O
   0.0889210000000000    0.8159070000000000    0.4543500000000000 O
   0.0926460000000000    0.1994820000000000    0.0380580000000000 O
   0.2652900000000000    0.6586260000000000    0.9254320000000000 O
   0.2654050000000000    0.3386640000000000    0.5774030000000000 O
   0.7641380000000000    0.0076270000000000    0.4167080000000000 O
   0.7665630000000000    0.9915330000000000    0.0848310000000000 O
   0.7345950000000000    0.3386640000000000    0.0774030000000000 O
   0.7347100000000000    0.6586260000000000    0.4254320000000000 O
   0.2334370000000000    0.9915330000000000    0.5848310000000000 O
   0.2358620000000000    0.0076270000000000    0.9167080000000000 O
   0.5692720000000000    0.6552550000000000    0.0720690000000000 O
   0.5749390000000000    0.3370950000000000    0.4289510000000000 O
   0.0678910000000000    0.2988500000000000    0.2732690000000000 O
   0.0764860000000000    0.6943840000000000    0.2346330000000000 O
   0.4250610000000000    0.3370950000000000    0.9289510000000000 O
   0.4307280000000000    0.6552550000000000    0.5720690000000000 O
   0.9235139999999999    0.6943840000000000    0.7346330000000000 O
   0.9321090000000000    0.2988500000000000    0.7732690000000000 O
