ALGO = Fast
EDIFF = 0.0034000000000000002
ENCUT = 520
IBRION = 2
ISIF = 3
ISMEAR = -5
ISPIN = 2
LASPH = True
LMAXMIX = 4
LORBIT = 11
LREAL = Auto
LWAVE = False
MAGMOM = 2*-0.003 2*0.731 4*0.002 8*0.0 8*0.001 12*0.0 4*0.001 4*0.002 4*0.012 4*0.003 4*0.002 4*0.009 4*0.004 4*0.002
NELM = 100
NSW = 99
PREC = Accurate
SIGMA = 0.05
