Li2 As2 H40 C16 O8
1.0
   4.1502770000000000    7.0741750000000003    0.0000000000000000
  -4.1502770000000000    7.0741750000000003    0.0000000000000000
   0.0000000000000000    3.3436640000000000   12.4248180000000001
Li As H C O
2 2 40 16 8
direct
   0.0640410000000000    0.9359590000000000    0.7500000000000000 Li
   0.9359590000000000    0.0640410000000000    0.2500000000000000 Li
   0.7321860000000000    0.2678140000000000    0.7500000000000000 As
   0.2678140000000000    0.7321860000000000    0.2500000000000000 As
   0.2303280000000000    0.6985260000000000    0.4880850000000000 H
   0.3014740000000000    0.7696720000000000    0.0119150000000000 H
   0.7696720000000000    0.3014740000000000    0.5119150000000000 H
   0.6985260000000000    0.2303280000000000    0.9880850000000000 H
   0.2981890000000000    0.5565230000000000    0.6145280000000000 H
   0.4434770000000000    0.7018110000000000    0.8854720000000000 H
   0.7018110000000000    0.4434770000000000    0.3854720000000000 H
   0.5565230000000000    0.2981890000000000    0.1145280000000000 H
   0.4272190000000000    0.9237000000000000    0.5932900000000000 H
   0.0763000000000000    0.5727810000000000    0.9067100000000000 H
   0.5727810000000000    0.0763000000000000    0.4067100000000000 H
   0.9237000000000000    0.4272190000000000    0.0932900000000000 H
   0.5153850000000000    0.6723540000000000    0.6119830000000001 H
   0.3276460000000000    0.4846150000000000    0.8880169999999999 H
   0.4846150000000000    0.3276460000000000    0.3880170000000000 H
   0.6723540000000000    0.5153850000000000    0.1119830000000000 H
   0.4482230000000000    0.8073310000000000    0.4834900000000000 H
   0.1926690000000000    0.5517770000000000    0.0165100000000000 H
   0.5517770000000000    0.1926690000000000    0.5165100000000000 H
   0.8073310000000000    0.4482230000000000    0.9834900000000000 H
   0.9772830000000000    0.6171530000000000    0.6007190000000000 H
   0.3828470000000000    0.0227170000000000    0.8992810000000000 H
   0.0227170000000000    0.3828470000000000    0.3992810000000000 H
   0.6171530000000000    0.9772830000000000    0.1007190000000000 H
   0.8981850000000000    0.8656030000000000    0.5698720000000000 H
   0.1343970000000000    0.1018150000000000    0.9301280000000000 H
   0.1018150000000000    0.1343970000000000    0.4301280000000000 H
   0.8656030000000000    0.8981850000000000    0.0698720000000000 H
   0.7438060000000000    0.7979690000000000    0.8521900000000000 H
   0.2020310000000000    0.2561940000000000    0.6478100000000000 H
   0.2561940000000000    0.2020310000000000    0.1478100000000000 H
   0.7979690000000000    0.7438060000000000    0.3521900000000000 H
   0.6663650000000000    0.9120580000000000    0.7242520000000000 H
   0.0879420000000000    0.3336350000000000    0.7757480000000000 H
   0.3336350000000000    0.0879420000000000    0.2757480000000000 H
   0.9120580000000000    0.6663650000000000    0.2242520000000000 H
   0.7496840000000000    0.6610549999999999    0.7578110000000000 H
   0.3389450000000000    0.2503160000000000    0.7421890000000000 H
   0.2503160000000000    0.3389450000000000    0.2421890000000000 H
   0.6610549999999999    0.7496840000000000    0.2578110000000000 H
   0.1995330000000000    0.6956660000000000    0.5766710000000000 C
   0.3043340000000000    0.8004670000000000    0.9233290000000000 C
   0.8004670000000000    0.3043340000000000    0.4233290000000000 C
   0.6956660000000000    0.1995330000000000    0.0766710000000000 C
   0.4158680000000000    0.8086890000000000    0.5715170000000001 C
   0.1913110000000000    0.5841330000000000    0.9284829999999999 C
   0.5841320000000000    0.1913110000000000    0.4284830000000000 C
   0.8086890000000000    0.4158680000000000    0.0715170000000000 C
   0.9972230000000000    0.7344910000000000    0.6139869999999999 C
   0.2655090000000000    0.0027770000000000    0.8860130000000001 C
   0.0027770000000000    0.2655090000000000    0.3860130000000000 C
   0.7344910000000000    0.9972230000000000    0.1139870000000000 C
   0.7684270000000000    0.7817100000000000    0.7670129999999999 C
   0.2182900000000000    0.2315730000000000    0.7329870000000001 C
   0.2315730000000000    0.2182900000000000    0.2329870000000000 C
   0.7817100000000000    0.7684270000000000    0.2670130000000000 C
   0.2254700000000000    0.8394120000000000    0.6062980000000000 O
   0.1605880000000000    0.7745300000000001    0.8937020000000000 O
   0.7745300000000001    0.1605880000000000    0.3937020000000000 O
   0.8394120000000000    0.2254700000000000    0.1062980000000000 O
   0.9570330000000000    0.7504610000000000    0.7265890000000000 O
   0.2495390000000000    0.0429670000000000    0.7734110000000000 O
   0.0429670000000000    0.2495390000000000    0.2734110000000000 O
   0.7504610000000000    0.9570330000000000    0.2265890000000000 O
