ALGO = Fast
EDIFF = 0.0005
ENCUT = 520
IBRION = 2
ISIF = 3
ISMEAR = -5
ISPIN = 2
LASPH = True
LMAXMIX = 6
LORBIT = 11
LREAL = Auto
LWAVE = False
MAGMOM = 1*-0.007 1*-0.003 1*-0.031 1*-0.016 1*0.183 1*0.17 1*0.188 1*0.175 1*0.1 1*0.067
NELM = 100
NSW = 99
PREC = Accurate
SIGMA = 0.05
