Ba1 Li1 Tb1 Sb1 O6
1.0
   0.0000000000000000   -4.2357753000000002   -4.2357753000000002
   4.2357753000000002    0.0000000000000000   -4.2357753000000002
   4.2357753000000002   -4.2357753000000002    0.0000000000000000
Ba Li Tb Sb O
1 1 1 1 6
direct
   0.2500000000000000    0.2500000000000000    0.2500000000000000 Ba
   0.7500000000000000    0.7500000000000000    0.7500000000000000 Li
   0.5000000000000000    0.5000000000000000    0.5000000000000000 Tb
   0.0000000000000000    0.0000000000000000    0.0000000000000000 Sb
   0.7643731200000000    0.2356268800000000    0.2356268800000000 O
   0.2356268800000000    0.7643731200000000    0.7643731200000000 O
   0.7643731200000000    0.2356268800000000    0.7643731200000000 O
   0.2356268800000000    0.7643731200000000    0.2356268800000000 O
   0.7643731200000000    0.7643731200000000    0.2356268800000000 O
   0.2356268800000000    0.2356268800000000    0.7643731200000000 O
