ALGO = Fast
EDIFF = 0.00095
ENCUT = 520
IBRION = 2
ISIF = 3
ISMEAR = -5
ISPIN = 2
LASPH = True
LMAXMIX = 6
LORBIT = 11
LREAL = Auto
LWAVE = False
MAGMOM = 1*0.014 1*1.026 1*1.0 1*0.989 1*0.997 1*1.082 1*0.961 1*1.001 1*1.093 1*1.005 1*0.952 1*-0.045 1*-0.044 1*-0.049 1*-0.056 1*-0.05 1*-0.056 2*-0.031
NELM = 100
NSW = 99
PREC = Accurate
SIGMA = 0.05
