Li1 Ce10 Pb6 O2
1.0
   7.6830175199999999    0.0983084700000000   -4.0085862299999997
  -1.9174894000000000    7.4235088899999999   -3.9963258900000000
  -0.0537487800000000   -0.0563340500000000    9.5283153400000007
Li Ce Pb O
1 10 6 2
direct
   0.1230477000000000    0.3745308200000000    0.9987259400000000 Li
   0.7045612100000000    0.4934545300000000    0.6990040100000000 Ce
   0.7972513200000000    0.3077043700000000    0.3009986000000000 Ce
   0.4972281700000000    0.0070226900000000    0.6993200200000000 Ce
   0.4948553500000000    0.0020174400000000    0.3020494100000000 Ce
   0.3635743500000000    0.5107109800000000    0.3723256600000000 Ce
   0.9941252100000000    0.0108162500000000    0.9998203000000000 Ce
   0.1934867600000000    0.7000308700000000    0.6982170500000000 Ce
   0.9913661900000000    0.1356059000000000    0.6252249000000000 Ce
   0.0055372500000000    0.7962893000000000    0.3021842800000000 Ce
   0.4889846100000000    0.5049247500000000    0.9999661500000000 Ce
   0.8345942500000000    0.3561275700000000    0.0007816200000000 Pb
   0.1446474600000000    0.6657518400000000    0.0007990200000000 Pb
   0.6471791000000000    0.8527282600000000    1.0000305100000000 Pb
   0.2545117800000000    0.2465088400000000    0.4995313000000000 Pb
   0.3486981200000000    0.1501932400000000    0.9998763600000000 Pb
   0.7543793100000000    0.7462719500000000    0.5006358600000000 Pb
   0.7502838400000000    0.2401928700000000    0.4904534800000000 O
   0.2601240300000000    0.7506805200000000    0.5100565100000000 O
