Li10 Ga2 Ge4 O16
1.0
  10.8719439999999992    0.0000000000000000    0.0000000000000000
   0.0000000000000000    5.1260469999999998    0.0000000000000000
   0.0000000000000000    0.0216210000000000    6.4657900000000001
Li Ga Ge O
10 2 4 16
direct
   0.0843470000000000    0.9471520000000000    0.0051690000000000 Li
   0.5843469999999999    0.0528480000000000    0.9948310000000000 Li
   0.9204570000000000    0.5334240000000000    0.5129250000000000 Li
   0.4204570000000000    0.4665760000000000    0.4870750000000000 Li
   0.6599760000000000    0.4373460000000000    0.2524250000000000 Li
   0.1599760000000000    0.5626540000000000    0.7475750000000000 Li
   0.6645850000000000    0.4326700000000000    0.7455360000000000 Li
   0.1645850000000000    0.5673300000000000    0.2544640000000000 Li
   0.3311320000000000    0.0718950000000000    0.2453180000000000 Li
   0.8311320000000000    0.9281050000000000    0.7546820000000000 Li
   0.3351290000000000    0.0723500000000000    0.7477240000000001 Ga
   0.8351290000000000    0.9276500000000000    0.2522760000000000 Ga
   0.0898200000000000    0.0802270000000000    0.4860560000000000 Ge
   0.5898200000000000    0.9197730000000000    0.5139440000000000 Ge
   0.9157180000000000    0.4419490000000000    0.9925680000000000 Ge
   0.4157180000000000    0.5580510000000000    0.0074320000000000 Ge
   0.4312200000000000    0.0386710000000000    0.5056980000000000 O
   0.9312200000000000    0.9613290000000000    0.4943020000000000 O
   0.5678860000000000    0.4581660000000000    0.0003250000000000 O
   0.0678860000000000    0.5418340000000000    0.9996750000000000 O
   0.1708700000000000    0.9629600000000000    0.7202080000000000 O
   0.6708700000000000    0.0370400000000000    0.2797920000000000 O
   0.8360060000000000    0.5604530000000000    0.2244700000000000 O
   0.3360060000000000    0.4395470000000000    0.7755300000000001 O
   0.8355220000000000    0.5404900000000000    0.7729819999999999 O
   0.3355220000000000    0.4595100000000000    0.2270180000000000 O
   0.1646630000000000    0.9548600000000000    0.2708820000000000 O
   0.6646630000000000    0.0451400000000000    0.7291180000000000 O
   0.4064800000000000    0.9156300000000001    0.9807770000000000 O
   0.9064800000000000    0.0843700000000000    0.0192230000000000 O
   0.5861900000000000    0.5813570000000000    0.4967870000000000 O
   0.0861900000000000    0.4186430000000000    0.5032130000000000 O
