Li1 Sb1 Te3 O12
1.0
  -5.1178100000000004    0.0000000000000000    0.0000000000000000
  -0.0024080000000000    5.3495999999999997    0.0000000000000000
  -0.0005570000000000    0.4263450000000000   -7.3966060000000002
Li Sb Te O
1 1 3 12
direct
   0.0015870000000000    0.4393050000000000    0.2196150000000000 Li
   0.9983840000000000    0.0048530000000000    0.9976640000000000 Sb
   0.4986740000000000    0.5093520000000000    0.9979610000000000 Te
   0.0002650000000000    0.0017020000000000    0.5063930000000000 Te
   0.5016720000000000    0.5060789999999999    0.5064520000000000 Te
   0.6882870000000000    0.1943610000000000    0.5726020000000001 O
   0.8804650000000001    0.0255630000000000    0.2593580000000000 O
   0.6720140000000000    0.8240130000000000    0.9410640000000000 O
   0.8153319999999999    0.6886820000000000    0.5688650000000000 O
   0.1887800000000000    0.6902750000000000    0.0696380000000000 O
   0.6299110000000000    0.5132120000000000    0.2558190000000000 O
   0.3664360000000000    0.5035020000000000    0.7508270000000000 O
   0.8204500000000000    0.3370690000000000    0.9550440000000000 O
   0.1896030000000000    0.3189810000000000    0.4387300000000000 O
   0.3061710000000000    0.2111340000000000    0.0721960000000000 O
   0.1336290000000000    0.0060100000000000    0.7466460000000000 O
   0.3083380000000000    0.8115110000000000    0.4339270000000000 O
