Li4 Pr4 S8 O32
1.0
   6.7854789999999996    0.0000000000000000    0.0000000000000000
   0.0000000000000000    7.1059890000000001    0.0000000000000000
   0.0000000000000000    3.5500579999999999   13.4136159999999993
Li Pr S O
4 4 8 32
direct
   0.2538410000000000    0.0434540000000000    0.4459040000000000 Li
   0.7538410000000000    0.4565460000000000    0.5540960000000000 Li
   0.2461590000000000    0.5434540000000000    0.4459040000000000 Li
   0.7461590000000000    0.9565460000000000    0.5540960000000000 Li
   0.3889100000000000    0.3455610000000000    0.8160020000000000 Pr
   0.6110900000000000    0.6544390000000000    0.1839980000000000 Pr
   0.1110900000000000    0.8455610000000000    0.8160020000000000 Pr
   0.8889100000000000    0.1544390000000000    0.1839980000000000 Pr
   0.5718060000000000    0.8065610000000000    0.8952080000000000 S
   0.0718060000000000    0.6934390000000000    0.1047920000000000 S
   0.5960029999999999    0.8164970000000000    0.3826450000000000 S
   0.4281940000000000    0.1934390000000000    0.1047920000000000 S
   0.9039970000000001    0.3164970000000000    0.3826450000000000 S
   0.9281940000000000    0.3065610000000000    0.8952080000000000 S
   0.4039970000000000    0.1835030000000000    0.6173550000000000 S
   0.0960030000000000    0.6835030000000000    0.6173550000000000 S
   0.2459250000000000    0.1447690000000000    0.6973480000000000 O
   0.1120200000000000    0.7616070000000000    0.9978710000000000 O
   0.8879800000000000    0.2383930000000000    0.0021290000000000 O
   0.0533050000000000    0.4866980000000000    0.8723919999999999 O
   0.7564170000000000    0.8419780000000000    0.8376660000000000 O
   0.4452200000000000    0.6615200000000000    0.8612109999999999 O
   0.7459249999999999    0.3552310000000000    0.3026520000000000 O
   0.1861220000000000    0.7622650000000000    0.5179510000000001 O
   0.5533050000000000    0.0133020000000000    0.1276080000000000 O
   0.9879430000000000    0.5040020000000000    0.6213440000000000 O
   0.8138780000000000    0.2377350000000000    0.4820490000000000 O
   0.9466950000000000    0.5133020000000000    0.1276080000000000 O
   0.4682430000000000    0.6639650000000000    0.3552330000000000 O
   0.9452199999999999    0.8384800000000000    0.1387890000000000 O
   0.6861220000000000    0.7377350000000000    0.4820490000000000 O
   0.3879800000000000    0.2616070000000000    0.9978710000000000 O
   0.0120570000000000    0.4959980000000000    0.3786560000000000 O
   0.2540750000000000    0.6447690000000000    0.6973480000000000 O
   0.4466950000000000    0.9866980000000000    0.8723919999999999 O
   0.4879430000000000    0.9959980000000000    0.3786560000000000 O
   0.2564170000000000    0.6580220000000000    0.1623340000000000 O
   0.0317570000000000    0.1639650000000000    0.3552330000000000 O
   0.2435830000000000    0.1580220000000000    0.1623340000000000 O
   0.5317570000000000    0.3360350000000000    0.6447670000000000 O
   0.3138780000000000    0.2622650000000000    0.5179510000000001 O
   0.0547800000000000    0.1615200000000000    0.8612109999999999 O
   0.5547800000000001    0.3384800000000000    0.1387890000000000 O
   0.6120200000000000    0.7383930000000000    0.0021290000000000 O
   0.7435830000000000    0.3419780000000000    0.8376660000000000 O
   0.5120570000000000    0.0040020000000000    0.6213440000000000 O
   0.7540750000000001    0.8552310000000000    0.3026520000000000 O
   0.9682430000000000    0.8360350000000000    0.6447670000000000 O
