pymatgen with grid density = 1106 / number of atoms
0
Gamma
3 4 2
