Li4 Bi2 As2 C2 O14
1.0
   7.1726020000000004    0.0000000000000000    0.0000000000000000
   0.0000000000000000    5.1390450000000003    0.0000000000000000
   0.0000000000000000    0.0485180000000000    9.3440019999999997
Li Bi As C O
4 2 2 2 14
direct
   0.0569570000000000    0.2134540000000000    0.7899280000000000 Li
   0.4430430000000000    0.2134540000000000    0.7899280000000000 Li
   0.5569570000000000    0.7865460000000000    0.2100720000000000 Li
   0.9430430000000000    0.7865460000000000    0.2100720000000000 Li
   0.7500000000000000    0.7786110000000001    0.6399520000000000 Bi
   0.2500000000000000    0.2213890000000000    0.3600480000000000 Bi
   0.2500000000000000    0.7276720000000000    0.6132360000000000 As
   0.7500000000000000    0.2723280000000000    0.3867640000000000 As
   0.7500000000000000    0.7438860000000000    0.9309790000000000 C
   0.2500000000000000    0.2561140000000000    0.0690210000000000 C
   0.2500000000000000    0.2614570000000000    0.9326920000000000 O
   0.7500000000000000    0.9677789999999999    0.8598200000000000 O
   0.7500000000000000    0.5322800000000000    0.8533610000000000 O
   0.0594100000000000    0.8790730000000000    0.6880210000000000 O
   0.4405900000000000    0.8790730000000000    0.6880210000000000 O
   0.7500000000000000    0.2273500000000000    0.5718990000000000 O
   0.2500000000000000    0.3990790000000000    0.6414720000000000 O
   0.7500000000000000    0.6009210000000000    0.3585280000000000 O
   0.2500000000000000    0.7726499999999999    0.4281010000000000 O
   0.5594100000000000    0.1209270000000000    0.3119790000000000 O
   0.9405900000000000    0.1209270000000000    0.3119790000000000 O
   0.2500000000000000    0.4677200000000000    0.1466390000000000 O
   0.2500000000000000    0.0322210000000000    0.1401800000000000 O
   0.7500000000000000    0.7385429999999999    0.0673080000000000 O
