Li1 Te4 H4 O6 F8
1.0
   5.0355319999999999    0.0136270000000000   -0.0552650000000000
   2.5325630000000001    6.0649839999999999    0.1652690000000000
   2.4145799999999999    0.3507900000000000   11.2923360000000006
Li Te H O F
1 4 4 6 8
direct
   0.9914269999999999    0.4073890000000000    0.6425940000000000 Li
   0.7460310000000000    0.1992210000000000    0.9238970000000000 Te
   0.8909850000000000    0.7349190000000000    0.1198140000000000 Te
   0.3987550000000000    0.7886480000000000    0.5864330000000000 Te
   0.7779700000000001    0.2944930000000000    0.3857560000000000 Te
   0.2276270000000000    0.1395960000000000    0.8035910000000001 H
   0.1605630000000000    0.7485930000000000    0.2728550000000000 H
   0.6513200000000000    0.7874100000000001    0.7507819999999999 H
   0.2043350000000000    0.2361600000000000    0.2173900000000000 H
   0.8384210000000000    0.4413950000000000    0.4977930000000000 O
   0.0032600000000000    0.9198680000000000    0.9815690000000000 O
   0.6381910000000000    0.6645640000000000    0.7139910000000000 O
   0.0376380000000000    0.3669880000000000    0.2494860000000000 O
   0.0312380000000000    0.1807680000000000    0.7803190000000000 O
   0.9786480000000000    0.8526550000000001    0.2434300000000000 O
   0.4941470000000000    0.5955840000000000    0.3212630000000000 F
   0.2785160000000000    0.5189950000000000    0.6413400000000000 F
   0.5261710000000001    0.0348860000000000    0.1330030000000000 F
   0.5827740000000000    0.0297380000000000    0.8327020000000001 F
   0.1477720000000000    0.0339060000000000    0.4126050000000000 F
   0.5650290000000000    0.0320740000000000    0.5679570000000000 F
   0.3126800000000000    0.5646580000000000    0.0755970000000000 F
   0.9625030000000000    0.3441580000000000    0.9886900000000000 F
