Li8 Be6 P6 I2 O24
1.0
   8.2449729999999999    0.0000000000000000    0.0000000000000000
   0.0000000000000000    8.2449729999999999    0.0000000000000000
   0.0000000000000000    0.0000000000000000    8.2449729999999999
Li Be P I O
8 6 6 2 24
direct
   0.1933680000000000    0.1933680000000000    0.1933680000000000 Li
   0.8066320000000000    0.8066320000000000    0.1933680000000000 Li
   0.8066320000000000    0.1933680000000000    0.8066320000000000 Li
   0.6933680000000000    0.6933680000000000    0.6933680000000000 Li
   0.1933680000000000    0.8066320000000000    0.8066320000000000 Li
   0.3066320000000000    0.3066320000000000    0.6933680000000000 Li
   0.6933680000000000    0.3066320000000000    0.3066320000000000 Li
   0.3066320000000000    0.6933680000000000    0.3066320000000000 Li
   0.2500000000000000    0.0000000000000000    0.5000000000000000 Be
   0.7500000000000000    0.0000000000000000    0.5000000000000000 Be
   0.5000000000000000    0.2500000000000000    0.0000000000000000 Be
   0.5000000000000000    0.7500000000000000    0.0000000000000000 Be
   0.0000000000000000    0.5000000000000000    0.2500000000000000 Be
   0.0000000000000000    0.5000000000000000    0.7500000000000000 Be
   0.2500000000000000    0.5000000000000000    0.0000000000000000 P
   0.7500000000000000    0.5000000000000000    0.0000000000000000 P
   0.0000000000000000    0.2500000000000000    0.5000000000000000 P
   0.0000000000000000    0.7500000000000000    0.5000000000000000 P
   0.5000000000000000    0.0000000000000000    0.2500000000000000 P
   0.5000000000000000    0.0000000000000000    0.7500000000000000 P
   0.0000000000000000    0.0000000000000000    0.0000000000000000 I
   0.5000000000000000    0.5000000000000000    0.5000000000000000 I
   0.1381570000000000    0.1461530000000000    0.4253050000000000 O
   0.8618430000000000    0.8538470000000000    0.4253050000000000 O
   0.8618430000000000    0.1461530000000000    0.5746950000000000 O
   0.4253050000000000    0.1381570000000000    0.1461530000000000 O
   0.6461530000000000    0.6381570000000000    0.9253050000000000 O
   0.1381570000000000    0.8538470000000000    0.5746950000000000 O
   0.4253050000000000    0.8618430000000000    0.8538470000000000 O
   0.3538470000000000    0.3618430000000000    0.9253050000000000 O
   0.5746950000000000    0.8618430000000000    0.1461530000000000 O
   0.6461530000000000    0.3618430000000000    0.0746950000000000 O
   0.5746950000000000    0.1381570000000000    0.8538470000000000 O
   0.3538470000000000    0.6381570000000000    0.0746950000000000 O
   0.1461530000000000    0.4253050000000000    0.1381570000000000 O
   0.6381570000000000    0.9253050000000000    0.6461530000000000 O
   0.1461530000000000    0.5746950000000000    0.8618430000000000 O
   0.3618430000000000    0.0746950000000000    0.6461530000000000 O
   0.8538470000000000    0.5746950000000000    0.1381570000000000 O
   0.6381570000000000    0.0746950000000000    0.3538470000000000 O
   0.8538470000000000    0.4253050000000000    0.8618430000000000 O
   0.3618430000000000    0.9253050000000000    0.3538470000000000 O
   0.9253050000000000    0.6461530000000000    0.6381570000000000 O
   0.9253050000000000    0.3538470000000000    0.3618430000000000 O
   0.0746950000000000    0.3538470000000000    0.6381570000000000 O
   0.0746950000000000    0.6461530000000000    0.3618430000000000 O
