pymatgen with grid density = 1747 / number of atoms
0
Gamma
4 4 9
