Li4 P4 H12 N4 O12
1.0
   4.9480570000000004    0.0074060000000000   -1.1426740000000000
  -1.1128370000000001    8.3639039999999998   -1.6851630000000000
  -0.1246240000000000    0.0706680000000000    8.9942119999999992
Li P H N O
4 4 12 4 12
direct
   0.6441560000000000    0.1327220000000000    0.9899559999999999 Li
   0.3558440000000000    0.8672780000000000    0.0100440000000000 Li
   0.6850270000000001    0.4300020000000000    0.5717220000000000 Li
   0.3149730000000000    0.5699980000000000    0.4282780000000000 Li
   0.8999010000000000    0.7696229999999999    0.5088140000000000 P
   0.1000990000000000    0.2303770000000000    0.4911860000000000 P
   0.9657920000000000    0.9268800000000000    0.2324810000000000 P
   0.0342080000000000    0.0731200000000000    0.7675190000000000 P
   0.5959900000000000    0.8243470000000001    0.2975790000000000 H
   0.4040100000000000    0.1756530000000000    0.7024210000000000 H
   0.6363920000000000    0.9022490000000000    0.6506700000000000 H
   0.3636080000000000    0.0977510000000000    0.3493300000000000 H
   0.0025810000000000    0.5434840000000000    0.8291150000000000 H
   0.9974189999999999    0.4565160000000000    0.1708850000000000 H
   0.8457880000000000    0.3753430000000000    0.8269480000000000 H
   0.1542120000000000    0.6246570000000000    0.1730520000000000 H
   0.3087970000000000    0.7045500000000000    0.7434910000000000 H
   0.6912030000000000    0.2954500000000000    0.2565090000000000 H
   0.5032050000000000    0.6114900000000000    0.8478370000000000 H
   0.4967950000000000    0.3885100000000000    0.1521630000000000 H
   0.8375470000000000    0.9090560000000000    0.6499040000000000 N
   0.1624530000000000    0.0909440000000000    0.3500960000000000 N
   0.8037500000000000    0.8309210000000000    0.3383310000000000 N
   0.1962500000000000    0.1690790000000000    0.6616690000000000 N
   0.7069240000000000    0.6207660000000000    0.4915900000000000 O
   0.2930760000000000    0.3792340000000000    0.5084100000000000 O
   0.2036940000000000    0.7580990000000000    0.5478660000000000 O
   0.7963060000000000    0.2419010000000000    0.4521340000000000 O
   0.8326780000000000    0.1726260000000000    0.8299140000000000 O
   0.1673220000000000    0.8273740000000001    0.1700860000000000 O
   0.7344030000000000    0.9702010000000000    0.1128270000000000 O
   0.2655970000000000    0.0297990000000000    0.8871730000000000 O
   0.8191710000000000    0.4817500000000000    0.8006580000000000 O
   0.1808290000000000    0.5182500000000000    0.1993420000000000 O
   0.3477150000000000    0.6729000000000001    0.8464400000000000 O
   0.6522850000000000    0.3271000000000000    0.1535600000000000 O
