pymatgen with grid density = 998 / number of atoms
0
Gamma
5 4 3
