ALGO = Fast
EDIFF = 0.0048000000000000004
ENCUT = 520
IBRION = 2
ISIF = 3
ISMEAR = -5
ISPIN = 2
LASPH = True
LMAXMIX = 6
LORBIT = 11
LREAL = Auto
LWAVE = False
MAGMOM = 4*0.0 1*6.313 1*6.285 1*6.332 1*6.286 1*6.321 1*6.311 1*6.314 1*6.329 1*6.336 1*6.335 1*6.328 1*6.327 1*6.317 1*6.349 1*6.325 1*6.353 1*6.268 1*6.257 1*6.272 1*6.262 1*6.244 1*6.277 1*6.263 1*6.258 4*0.005 4*0.006 4*0.005 2*-0.086 1*-0.085 1*-0.087 1*-0.088 1*-0.09 1*-0.089 1*-0.09 2*-0.246 1*-0.247 1*-0.244 1*-0.074 1*-0.073 1*-0.072 1*-0.074 4*-0.07 1*-0.078 1*-0.077 1*-0.076 1*-0.079 1*-0.078 1*-0.08 2*-0.079 1*-0.247 1*-0.243 1*-0.246 1*-0.245 1*-0.281 1*-0.282 1*-0.28 1*-0.283 3*-0.257 1*-0.256 1*-0.274 1*-0.277 1*-0.274 1*-0.272 1*-0.075 1*-0.076 1*-0.077 1*-0.075 2*-0.072 2*-0.071 1*-0.078 3*-0.076
NELM = 100
NSW = 99
PREC = Accurate
SIGMA = 0.05
