Li4 Eu24 B12 O56
1.0
   6.4473345200000001   -0.0009048800000000   -5.8234386999999996
  -6.4743003899999998   -0.0010424900000000   -6.5370791400000003
   0.0000323400000000   16.0672864199999985    0.0025331000000000
Li Eu B O
4 24 12 56
direct
   0.6795973700000000    0.5604400200000000    0.3961152800000000 Li
   0.3203929600000000    0.4395916700000000    0.6039328500000000 Li
   0.8203312300000000    0.9396074700000000    0.8960829500000000 Li
   0.1797014900000000    0.0604434400000000    0.1039095500000000 Li
   0.1413558800000000    0.6960908700000000    0.1775235100000000 Eu
   0.8586300900000000    0.3038782200000000    0.8224363900000000 Eu
   0.3588527900000000    0.8037994200000000    0.6775854100000001 Eu
   0.6414372000000000    0.1961842900000000    0.3225613100000000 Eu
   0.9589356200000000    0.9501010200000000    0.6756358800000000 Eu
   0.0411078900000000    0.0500197700000000    0.3244010600000000 Eu
   0.5409456700000000    0.5498980100000000    0.1756641300000000 Eu
   0.4590546300000000    0.4499184100000000    0.8243234000000000 Eu
   0.7304060999999999    0.5766412800000000    0.6444835799999999 Eu
   0.2694921400000000    0.4232973500000000    0.3555720600000000 Eu
   0.7694887500000001    0.9232293000000000    0.1444363800000000 Eu
   0.2305304600000000    0.0768276100000000    0.8555644600000000 Eu
   0.0529539200000000    0.7150108100000000    0.4865895900000000 Eu
   0.9471268200000000    0.2848856900000000    0.5134404400000000 Eu
   0.4470561500000000    0.7849630900000000    0.9865282300000000 Eu
   0.5528439700000000    0.2149988400000000    0.0133974100000000 Eu
   0.7007495000000000    0.9352042800000000    0.4955025400000000 Eu
   0.2993258800000000    0.0648477100000000    0.5045063100000000 Eu
   0.7992102100000000    0.5647276400000000    0.9954267300000000 Eu
   0.2007696900000000    0.4351465000000000    0.0044497300000000 Eu
   0.4223547800000000    0.8314743900000000    0.3346952000000000 Eu
   0.5776286700000000    0.1684608400000000    0.6653712500000000 Eu
   0.0775669400000000    0.6682523800000000    0.8347064900000000 Eu
   0.9225369900000000    0.3317927800000000    0.1652315100000000 Eu
   0.4297683100000000    0.9729897900000000    0.1732389700000000 B
   0.5702083000000000    0.0270205000000000    0.8267053300000000 B
   0.0702008400000000    0.5270597200000000    0.6733310500000000 B
   0.9299680400000000    0.4730183600000000    0.3267179100000000 B
   0.0637809700000000    0.8553485400000000    0.0006860700000000 B
   0.9361347500000000    0.1446197500000000    0.9992630100000000 B
   0.4361060200000000    0.6446120600000000    0.5007191800000000 B
   0.5638738700000000    0.3553571900000000    0.4993567600000000 B
   0.8201760200000000    0.7790111100000000    0.3068271400000000 B
   0.1798924100000000    0.2210183700000000    0.6932354200000000 B
   0.6798662000000000    0.7209755900000000    0.8068240700000000 B
   0.3201059300000000    0.2790047300000000    0.1931364300000000 B
   0.9368883200000000    0.8221388600000000    0.2503411700000000 O
   0.0631570600000000    0.1778627500000000    0.7496437800000000 O
   0.5630820500000000    0.6779042400000000    0.7503407900000000 O
   0.4369257200000000    0.3220792700000000    0.2496769800000000 O
   0.7049396000000000    0.4027726600000000    0.5324901600000000 O
   0.2950618000000000    0.5972263000000000    0.4675219200000000 O
   0.7949961000000000    0.0971530000000000    0.0325203800000000 O
   0.2050733600000000    0.9028392000000000    0.9674854500000000 O
   0.8441577500000000    0.7810400000000000    0.5789736000000000 O
   0.1558494300000000    0.2189071300000000    0.4210392700000000 O
   0.6558356000000000    0.7190841300000000    0.0789949900000000 O
   0.3441230400000000    0.2810240300000000    0.9209972700000000 O
   0.0311324500000000    0.8820877700000000    0.0831839700000000 O
   0.9688388200000000    0.1179176200000000    0.9168173700000000 O
   0.4687790200000000    0.6179111300000000    0.5831607400000000 O
   0.5312260900000000    0.3820497500000000    0.4168186200000000 O
   0.4641643900000000    0.9901390500000000    0.0900185000000000 O
   0.5358242900000000    0.0098326200000000    0.9099755700000000 O
   0.0358629600000000    0.5098564400000000    0.5900296000000000 O
   0.9640966800000000    0.4901443500000000    0.4099586400000000 O
   0.2868043300000000    0.9258122300000000    0.2034001400000000 O
   0.7131738600000000    0.0742108000000000    0.7966129500000000 O
   0.2131316100000000    0.5741952900000000    0.7033514500000000 O
   0.7867649400000000    0.4257177700000000    0.2966165900000000 O
   0.4571733500000000    0.2820921100000000    0.5498152700000000 O
   0.5428772800000000    0.7179713500000000    0.4501518500000000 O
   0.0428628600000000    0.2179733200000000    0.0498756900000000 O
   0.9571958800000000    0.7821068799999999    0.9501747400000000 O
   0.1932225200000000    0.8975726500000000    0.4020974800000000 O
   0.8067344500000000    0.1024263200000000    0.5979058400000000 O
   0.3067409500000000    0.6025423100000000    0.9021105600000000 O
   0.6932857200000000    0.3975098900000000    0.0979332700000000 O
   0.0089265100000000    0.5326901500000000    0.0892478300000000 O
   0.9911569600000000    0.4673318600000000    0.9107625000000000 O
   0.4910606600000000    0.9673474399999999    0.5892384400000000 O
   0.5088762900000000    0.0327309800000000    0.4107077600000000 O
   0.1634114000000000    0.8755516300000000    0.5857547400000001 O
   0.8365505800000000    0.1244286500000000    0.4141796100000000 O
   0.3366412000000000    0.6244434400000000    0.0857671500000000 O
   0.6632974100000000    0.3756348800000000    0.9141727400000000 O
   0.1532353500000000    0.8767931200000000    0.7682749300000000 O
   0.8466947500000001    0.1231294200000000    0.2317269800000000 O
   0.3468174900000000    0.6232851500000000    0.2682912600000000 O
   0.6531973700000000    0.3767485000000000    0.7316655700000000 O
   0.8211009800000000    0.7699536500000000    0.7761113900000000 O
   0.1788183300000000    0.2300012600000000    0.2239320100000000 O
   0.6788777800000000    0.7300518700000000    0.2760940600000000 O
   0.3210313900000000    0.2699880100000000    0.7238992800000000 O
   0.8501310800000000    0.7986239500000000    0.3906466800000000 O
   0.1498159100000000    0.2013849900000000    0.6093503900000000 O
   0.6497703900000000    0.7013995600000000    0.8906633900000001 O
   0.3501998300000000    0.2986157800000000    0.1093369000000000 O
   0.5471705500000000    0.9966778800000000    0.2309470400000000 O
   0.4528350500000000    0.0033405100000000    0.7690532400000000 O
   0.9528655900000000    0.5033463100000000    0.7309669000000000 O
   0.0470694400000000    0.4966309900000000    0.2690596400000000 O
