pymatgen with grid density = 1602 / number of atoms
0
Gamma
2 2 3
