Li4 H24 C6 S2 N12 O14
1.0
   4.7081939999999998    8.6739870000000003    0.0000000000000000
  -4.7081939999999998    8.6739870000000003    0.0000000000000000
   0.0000000000000000    3.0407120000000001    7.5233860000000004
Li H C S N O
4 24 6 2 12 14
direct
   0.2432830000000000    0.6192879999999999    0.6616820000000000 Li
   0.3807120000000000    0.7567170000000000    0.8383180000000000 Li
   0.7567170000000000    0.3807120000000000    0.3383180000000000 Li
   0.6192879999999999    0.2432830000000000    0.1616820000000000 Li
   0.7597630000000000    0.6445630000000000    0.5958790000000000 H
   0.3554370000000000    0.2402370000000000    0.9041210000000000 H
   0.2402370000000000    0.3554370000000000    0.4041210000000000 H
   0.6445630000000000    0.7597630000000000    0.0958790000000000 H
   0.8871730000000000    0.7360880000000000    0.4987140000000000 H
   0.2639120000000000    0.1128270000000000    0.0012860000000000 H
   0.1128270000000000    0.2639120000000000    0.5012860000000000 H
   0.7360880000000000    0.8871730000000000    0.9987140000000000 H
   0.7684270000000000    0.4947980000000000    0.8854690000000000 H
   0.5052020000000000    0.2315730000000000    0.6145310000000000 H
   0.2315730000000000    0.5052020000000000    0.1145310000000000 H
   0.4947980000000000    0.7684270000000000    0.3854690000000000 H
   0.9253630000000000    0.4431540000000000    0.9858460000000000 H
   0.5568460000000000    0.0746370000000000    0.5141540000000000 H
   0.0746370000000000    0.5568460000000000    0.0141540000000000 H
   0.4431540000000000    0.9253630000000000    0.4858460000000000 H
   0.1351180000000000    0.0764850000000000    0.7991910000000000 H
   0.9235150000000000    0.8648820000000000    0.7008090000000000 H
   0.8648820000000000    0.9235150000000000    0.2008090000000000 H
   0.0764850000000000    0.1351180000000000    0.2991910000000000 H
   0.9222550000000000    0.1873880000000000    0.7969590000000000 H
   0.8126120000000000    0.0777450000000000    0.7030410000000000 H
   0.0777450000000000    0.8126120000000000    0.2030410000000000 H
   0.1873880000000000    0.9222550000000000    0.2969590000000000 H
   0.9278820000000000    0.5852920000000000    0.7405910000000000 C
   0.4147080000000000    0.0721180000000000    0.7594090000000000 C
   0.0721180000000000    0.4147080000000000    0.2594090000000000 C
   0.5852920000000000    0.9278820000000000    0.2405910000000000 C
   0.0492320000000000    0.9507679999999999    0.7500000000000000 C
   0.9507679999999999    0.0492320000000000    0.2500000000000000 C
   0.5860910000000000    0.4139090000000000    0.7500000000000000 S
   0.4139090000000000    0.5860910000000000    0.2500000000000000 S
   0.8479820000000000    0.6659520000000000    0.6021770000000000 N
   0.3340480000000000    0.1520180000000000    0.8978230000000000 N
   0.1520180000000000    0.3340480000000000    0.3978230000000000 N
   0.6659520000000000    0.8479820000000000    0.1021770000000000 N
   0.8793520000000000    0.4854100000000000    0.8728270000000000 N
   0.5145900000000000    0.1206480000000000    0.6271730000000000 N
   0.1206480000000000    0.5145900000000000    0.1271730000000000 N
   0.4854100000000000    0.8793520000000000    0.3728270000000000 N
   0.0366330000000000    0.0893730000000000    0.7680630000000001 N
   0.9106270000000000    0.9633670000000000    0.7319369999999999 N
   0.9633670000000000    0.9106270000000000    0.2319370000000000 N
   0.0893730000000000    0.0366330000000000    0.2680630000000000 N
   0.6900890000000000    0.3317350000000000    0.5943170000000000 O
   0.6682650000000000    0.3099110000000000    0.9056830000000000 O
   0.3099110000000000    0.6682650000000000    0.4056830000000000 O
   0.3317350000000000    0.6900890000000000    0.0943170000000000 O
   0.4193280000000000    0.4304660000000000    0.7874310000000000 O
   0.5695340000000000    0.5806720000000000    0.7125690000000000 O
   0.5806720000000000    0.5695340000000000    0.2125690000000000 O
   0.4304660000000000    0.4193280000000000    0.2874310000000000 O
   0.0438140000000000    0.6028280000000000    0.7484150000000001 O
   0.3971720000000000    0.9561860000000000    0.7515849999999999 O
   0.9561860000000000    0.3971720000000000    0.2515850000000000 O
   0.6028280000000000    0.0438140000000000    0.2484150000000000 O
   0.1840910000000000    0.8159090000000000    0.7500000000000000 O
   0.8159090000000000    0.1840910000000000    0.2500000000000000 O
