Sr3 Li4 La5 O12
1.0
   3.5911940000000002    0.0000000000000000    0.0000000000000000
   0.0000000000000000    6.9867140000000001    0.0000000000000000
   0.0000000000000000    0.0136000000000000   13.6139370000000000
Sr Li La O
3 4 5 12
direct
   0.5000000000000000    0.9130250000000000    0.7824920000000000 Sr
   0.5000000000000000    0.4116830000000000    0.7209250000000000 Sr
   0.0000000000000000    0.5891650000000000    0.2795760000000000 Sr
   0.0000000000000000    0.6234300000000000    0.8656260000000000 Li
   0.0000000000000000    0.1237040000000000    0.6353180000000000 Li
   0.5000000000000000    0.8752620000000000    0.3685490000000000 Li
   0.5000000000000000    0.3828160000000000    0.1313690000000000 Li
   0.0000000000000000    0.2416010000000000    0.9571220000000000 La
   0.0000000000000000    0.7426370000000000    0.5442320000000000 La
   0.5000000000000000    0.2574730000000000    0.4584360000000000 La
   0.0000000000000000    0.0859280000000000    0.2169920000000000 La
   0.5000000000000000    0.7602200000000000    0.0426070000000000 La
   0.0000000000000000    0.8684440000000000    0.9315090000000000 O
   0.5000000000000000    0.4865780000000000    0.9035600000000000 O
   0.0000000000000000    0.1808710000000000    0.7772710000000000 O
   0.0000000000000000    0.6802730000000000    0.7192140000000000 O
   0.5000000000000000    0.9898570000000000    0.5933940000000000 O
   0.0000000000000000    0.3663410000000000    0.5630870000000000 O
   0.5000000000000000    0.6299260000000000    0.4363430000000000 O
   0.0000000000000000    0.0104790000000000    0.3970040000000000 O
   0.5000000000000000    0.3129060000000000    0.2765550000000000 O
   0.5000000000000000    0.8316370000000000    0.2277180000000000 O
   0.0000000000000000    0.5019200000000000    0.1001860000000000 O
   0.5000000000000000    0.1338240000000000    0.0709130000000000 O
