Li16 P8 H48 O48
1.0
  -6.4117350000000002    6.4117350000000002    6.4117350000000002
   6.4117350000000002   -6.4117350000000002    6.4117350000000002
   6.4117350000000002    6.4117350000000002   -6.4117350000000002
Li P H O
16 8 48 48
direct
   0.2500000000000000    0.6505040000000000    0.4005040000000000 Li
   0.7500000000000000    0.8494960000000000    0.0994960000000000 Li
   0.6505040000000000    0.4005040000000000    0.2500000000000000 Li
   0.8494960000000000    0.0994960000000000    0.7500000000000000 Li
   0.4005040000000000    0.2500000000000000    0.6505040000000000 Li
   0.0994960000000000    0.7500000000000000    0.8494960000000000 Li
   0.7500000000000000    0.3494960000000000    0.5994960000000000 Li
   0.2500000000000000    0.1505040000000000    0.9005040000000000 Li
   0.3494960000000000    0.5994960000000000    0.7500000000000000 Li
   0.1505040000000000    0.9005040000000000    0.2500000000000000 Li
   0.5994960000000000    0.7500000000000000    0.3494960000000000 Li
   0.9005040000000000    0.2500000000000000    0.1505040000000000 Li
   0.0000000000000000    0.0000000000000000    0.5000000000000000 Li
   0.5000000000000000    0.5000000000000000    0.5000000000000000 Li
   0.5000000000000000    0.0000000000000000    0.0000000000000000 Li
   0.0000000000000000    0.5000000000000000    0.0000000000000000 Li
   0.5000000000000000    0.0000000000000000    0.6006500000000000 P
   0.6006500000000000    0.5000000000000000    0.0000000000000000 P
   0.0000000000000000    0.6006500000000000    0.5000000000000000 P
   0.8993500000000000    0.8993500000000000    0.8993500000000000 P
   0.5000000000000000    0.0000000000000000    0.3993500000000000 P
   0.3993500000000000    0.5000000000000000    0.0000000000000000 P
   0.0000000000000000    0.3993500000000000    0.5000000000000000 P
   0.1006500000000000    0.1006500000000000    0.1006500000000000 P
   0.0900390000000000    0.8011000000000000    0.4070340000000000 H
   0.6059330000000001    0.6989000000000000    0.7889380000000000 H
   0.4099610000000000    0.8169950000000000    0.7110620000000000 H
   0.8940669999999999    0.6830050000000000    0.0929660000000000 H
   0.8011000000000000    0.4070340000000000    0.0900390000000000 H
   0.6989000000000000    0.7889380000000000    0.6059330000000001 H
   0.8169950000000000    0.7110620000000000    0.4099610000000000 H
   0.6830050000000000    0.0929660000000000    0.8940669999999999 H
   0.4070340000000000    0.0900390000000000    0.8011000000000000 H
   0.7889380000000000    0.6059330000000001    0.6989000000000000 H
   0.7110620000000000    0.4099610000000000    0.8169950000000000 H
   0.0929660000000000    0.8940669999999999    0.6830050000000000 H
   0.9099610000000000    0.1989000000000000    0.5929660000000000 H
   0.3940670000000000    0.3011000000000000    0.2110620000000000 H
   0.5900390000000000    0.1830050000000000    0.2889380000000000 H
   0.1059330000000000    0.3169950000000000    0.9070340000000000 H
   0.1989000000000000    0.5929660000000000    0.9099610000000000 H
   0.3011000000000000    0.2110620000000000    0.3940670000000000 H
   0.1830050000000000    0.2889380000000000    0.5900390000000000 H
   0.3169950000000000    0.9070340000000000    0.1059330000000000 H
   0.5929660000000000    0.9099610000000000    0.1989000000000000 H
   0.2110620000000000    0.3940670000000000    0.3011000000000000 H
   0.2889380000000000    0.5900390000000000    0.1830050000000000 H
   0.9070340000000000    0.1059330000000000    0.3169950000000000 H
   0.2220990000000000    0.9631640000000000    0.5049770000000000 H
   0.5418130000000000    0.5368360000000000    0.7589350000000000 H
   0.2779010000000000    0.7828780000000000    0.7410650000000000 H
   0.9581870000000000    0.7171220000000000    0.9950230000000000 H
   0.9631640000000000    0.5049770000000000    0.2220990000000000 H
   0.5368360000000000    0.7589350000000000    0.5418130000000000 H
   0.7828780000000000    0.7410650000000000    0.2779010000000000 H
   0.7171220000000000    0.9950230000000000    0.9581870000000000 H
   0.5049770000000000    0.2220990000000000    0.9631640000000000 H
   0.7589350000000000    0.5418130000000000    0.5368360000000000 H
   0.7410650000000000    0.2779010000000000    0.7828780000000000 H
   0.9950230000000000    0.9581870000000000    0.7171220000000000 H
   0.7779010000000000    0.0368360000000000    0.4950230000000000 H
   0.4581870000000000    0.4631640000000000    0.2410650000000000 H
   0.7220990000000000    0.2171220000000000    0.2589350000000000 H
   0.0418130000000000    0.2828780000000000    0.0049770000000000 H
   0.0368360000000000    0.4950230000000000    0.7779010000000000 H
   0.4631640000000000    0.2410650000000000    0.4581870000000000 H
   0.2171220000000000    0.2589350000000000    0.7220990000000000 H
   0.2828780000000000    0.0049770000000000    0.0418130000000000 H
   0.4950230000000000    0.7779010000000000    0.0368360000000000 H
   0.2410650000000000    0.4581870000000000    0.4631640000000000 H
   0.2589350000000000    0.7220990000000000    0.2171220000000000 H
   0.0049770000000000    0.0418130000000000    0.2828780000000000 H
   0.4297910000000000    0.8375110000000000    0.5643130000000000 O
   0.7268019999999999    0.6624890000000000    0.0922800000000000 O
   0.0702090000000000    0.6345220000000000    0.4077200000000000 O
   0.7731980000000001    0.8654780000000000    0.9356870000000000 O
   0.8375110000000000    0.5643130000000000    0.4297910000000000 O
   0.6624890000000000    0.0922800000000000    0.7268019999999999 O
   0.6345220000000000    0.4077200000000000    0.0702090000000000 O
   0.8654780000000000    0.9356870000000000    0.7731980000000001 O
   0.5643130000000000    0.4297910000000000    0.8375110000000000 O
   0.0922800000000000    0.7268019999999999    0.6624890000000000 O
   0.4077200000000000    0.0702090000000000    0.6345220000000000 O
   0.9356870000000000    0.7731980000000001    0.8654780000000000 O
   0.5702090000000000    0.1624890000000000    0.4356870000000000 O
   0.2731980000000000    0.3375110000000000    0.9077200000000000 O
   0.9297910000000000    0.3654780000000000    0.5922800000000000 O
   0.2268020000000000    0.1345220000000000    0.0643130000000000 O
   0.1624890000000000    0.4356870000000000    0.5702090000000000 O
   0.3375110000000000    0.9077200000000000    0.2731980000000000 O
   0.3654780000000000    0.5922800000000000    0.9297910000000000 O
   0.1345220000000000    0.0643130000000000    0.2268020000000000 O
   0.4356870000000000    0.5702090000000000    0.1624890000000000 O
   0.9077200000000000    0.2731980000000000    0.3375110000000000 O
   0.5922800000000000    0.9297910000000000    0.3654780000000000 O
   0.0643130000000000    0.2268020000000000    0.1345220000000000 O
   0.1197200000000000    0.9011150000000000    0.4187060000000000 O
   0.5175900000000000    0.5988850000000000    0.7186050000000000 O
   0.3802800000000000    0.7989860000000000    0.7813950000000000 O
   0.9824100000000000    0.7010140000000000    0.0812940000000000 O
   0.9011150000000000    0.4187060000000000    0.1197200000000000 O
   0.5988850000000000    0.7186050000000000    0.5175900000000000 O
   0.7989860000000000    0.7813950000000000    0.3802800000000000 O
   0.7010140000000000    0.0812940000000000    0.9824100000000000 O
   0.4187060000000000    0.1197200000000000    0.9011150000000000 O
   0.7186050000000000    0.5175900000000000    0.5988850000000000 O
   0.7813950000000000    0.3802800000000000    0.7989860000000000 O
   0.0812940000000000    0.9824100000000000    0.7010140000000000 O
   0.8802800000000000    0.0988850000000000    0.5812940000000000 O
   0.4824100000000000    0.4011150000000000    0.2813950000000000 O
   0.6197200000000000    0.2010140000000000    0.2186050000000000 O
   0.0175900000000000    0.2989860000000000    0.9187060000000000 O
   0.0988850000000000    0.5812940000000000    0.8802800000000000 O
   0.4011150000000000    0.2813950000000000    0.4824100000000000 O
   0.2010140000000000    0.2186050000000000    0.6197200000000000 O
   0.2989860000000000    0.9187060000000000    0.0175900000000000 O
   0.5812940000000000    0.8802800000000000    0.0988850000000000 O
   0.2813950000000000    0.4824100000000000    0.4011150000000000 O
   0.2186050000000000    0.6197200000000000    0.2010140000000000 O
   0.9187060000000000    0.0175900000000000    0.2989860000000000 O
