pymatgen with grid density = 1437 / number of atoms
0
Gamma
2 4 3
