Na4 Li4 Mg4 P4 O16 F4
1.0
  11.3467369999999992    0.0000000000000000    0.0000000000000000
   0.0000000000000000    5.0822580000000004    0.0000000000000000
   0.0000000000000000    0.0025100000000000    6.8963400000000004
Na Li Mg P O F
4 4 4 4 16 4
direct
   0.6654130000000000    0.7530910000000000    0.5113990000000000 Na
   0.1654130000000000    0.7469090000000000    0.4886010000000000 Na
   0.3345870000000000    0.2469090000000000    0.4886010000000000 Na
   0.8345870000000000    0.2530910000000000    0.5113990000000000 Na
   0.5801840000000000    0.2632220000000000    0.7402570000000001 Li
   0.0801840000000000    0.2367780000000000    0.2597430000000000 Li
   0.4198160000000000    0.7367780000000000    0.2597430000000000 Li
   0.9198160000000000    0.7632220000000000    0.7402570000000001 Li
   0.3289700000000000    0.2634630000000000    0.0183980000000000 Mg
   0.8289700000000000    0.2365370000000000    0.9816020000000000 Mg
   0.6710300000000000    0.7365370000000000    0.9816020000000000 Mg
   0.1710300000000000    0.7634630000000000    0.0183980000000000 Mg
   0.4181890000000000    0.7712680000000000    0.7543040000000000 P
   0.9181890000000000    0.7287320000000000    0.2456960000000000 P
   0.5818110000000000    0.2287320000000000    0.2456960000000000 P
   0.0818110000000000    0.2712680000000000    0.7543040000000000 P
   0.3761940000000000    0.7401270000000000    0.5421710000000000 O
   0.8761940000000000    0.7598730000000000    0.4578290000000000 O
   0.6238060000000000    0.2598730000000000    0.4578290000000000 O
   0.1238060000000000    0.2401270000000000    0.5421710000000000 O
   0.3283050000000000    0.6312950000000001    0.8908820000000000 O
   0.8283050000000000    0.8687049999999999    0.1091180000000000 O
   0.6716950000000000    0.3687050000000000    0.1091180000000000 O
   0.1716950000000000    0.1312950000000000    0.8908820000000000 O
   0.4261240000000000    0.0710960000000000    0.8052330000000000 O
   0.9261239999999999    0.4289040000000000    0.1947670000000000 O
   0.5738760000000001    0.9289040000000000    0.1947670000000000 O
   0.0738760000000000    0.5710960000000000    0.8052330000000000 O
   0.5411230000000000    0.6423940000000000    0.7828340000000000 O
   0.0411230000000000    0.8576060000000000    0.2171660000000000 O
   0.4588770000000000    0.3576060000000000    0.2171660000000000 O
   0.9588770000000000    0.1423940000000000    0.7828340000000000 O
   0.2127910000000000    0.4644220000000000    0.1992640000000000 F
   0.7127910000000000    0.0355780000000000    0.8007360000000000 F
   0.7872090000000000    0.5355780000000000    0.8007360000000000 F
   0.2872090000000000    0.9644220000000000    0.1992640000000000 F
