pymatgen with grid density = 1102 / number of atoms
0
Monkhorst
2 2 2
