Li8 Al6 Ge6 Cl2 O24
1.0
   8.7180400000000002    0.0000000000000000    0.0000000000000000
   0.0000000000000000    8.7180400000000002    0.0000000000000000
   0.0000000000000000    0.0000000000000000    8.7180400000000002
Li Al Ge Cl O
8 6 6 2 24
direct
   0.8269430000000000    0.8269430000000000    0.1730570000000000 Li
   0.8269430000000000    0.1730570000000000    0.8269430000000000 Li
   0.3269430000000000    0.6730570000000000    0.3269430000000000 Li
   0.1730570000000000    0.1730570000000000    0.1730570000000000 Li
   0.6730570000000000    0.6730570000000000    0.6730570000000000 Li
   0.3269430000000000    0.3269430000000000    0.6730570000000000 Li
   0.6730570000000000    0.3269430000000000    0.3269430000000000 Li
   0.1730570000000000    0.8269430000000000    0.8269430000000000 Li
   0.0000000000000000    0.7500000000000000    0.5000000000000000 Al
   0.2500000000000000    0.5000000000000000    0.0000000000000000 Al
   0.5000000000000000    0.0000000000000000    0.7500000000000000 Al
   0.5000000000000000    0.0000000000000000    0.2500000000000000 Al
   0.0000000000000000    0.2500000000000000    0.5000000000000000 Al
   0.7500000000000000    0.5000000000000000    0.0000000000000000 Al
   0.0000000000000000    0.5000000000000000    0.2500000000000000 Ge
   0.5000000000000000    0.7500000000000000    0.0000000000000000 Ge
   0.5000000000000000    0.2500000000000000    0.0000000000000000 Ge
   0.0000000000000000    0.5000000000000000    0.7500000000000000 Ge
   0.7500000000000000    0.0000000000000000    0.5000000000000000 Ge
   0.2500000000000000    0.0000000000000000    0.5000000000000000 Ge
   0.0000000000000000    0.0000000000000000    0.0000000000000000 Cl
   0.5000000000000000    0.5000000000000000    0.5000000000000000 Cl
   0.4018770000000000    0.8620980000000000    0.8622750000000000 O
   0.6377250000000000    0.3620980000000000    0.0981230000000000 O
   0.1377250000000000    0.5981230000000000    0.8620980000000000 O
   0.6379020000000000    0.9018770000000000    0.6377250000000000 O
   0.9018770000000000    0.3622750000000000    0.3620980000000000 O
   0.1379020000000000    0.8622750000000000    0.5981230000000000 O
   0.1377250000000000    0.4018770000000000    0.1379020000000000 O
   0.3622750000000000    0.6379020000000000    0.0981230000000000 O
   0.3620980000000000    0.9018770000000000    0.3622750000000000 O
   0.8622750000000000    0.5981230000000000    0.1379020000000000 O
   0.3622750000000000    0.3620980000000000    0.9018770000000000 O
   0.8620980000000000    0.1377250000000000    0.5981230000000000 O
   0.5981230000000000    0.1379020000000000    0.8622750000000000 O
   0.4018770000000000    0.1379020000000000    0.1377250000000000 O
   0.8622750000000000    0.4018770000000000    0.8620980000000000 O
   0.5981230000000000    0.8620980000000000    0.1377250000000000 O
   0.1379020000000000    0.1377250000000000    0.4018770000000000 O
   0.6379020000000000    0.0981230000000000    0.3622750000000000 O
   0.8620980000000000    0.8622750000000000    0.4018770000000000 O
   0.3620980000000000    0.0981230000000000    0.6377250000000000 O
   0.6377250000000000    0.6379020000000000    0.9018770000000000 O
   0.9018770000000000    0.6377250000000000    0.6379020000000000 O
   0.0981230000000000    0.3622750000000000    0.6379020000000000 O
   0.0981230000000000    0.6377250000000000    0.3620980000000000 O
