Ba3 Li1 As2 O8
1.0
   7.0923410000000002    1.0334550000000000    6.4185980000000002
   3.9223650000000001    5.9986990000000002    6.4185980000000002
   1.3177790000000000    0.8413140000000000    7.4604770000000000
Ba Li As O
3 1 2 8
direct
   0.6681410000000000    0.6681410000000000    0.0143720000000000 Ba
   0.3318590000000000    0.3318590000000000    0.9856279999999999 Ba
   0.0000000000000000    0.0000000000000000    0.0000000000000000 Ba
   0.0000000000000000    0.0000000000000000    0.5000000000000000 Li
   0.6654710000000000    0.6654710000000000    0.4541190000000000 As
   0.3345290000000000    0.3345290000000000    0.5458809999999999 As
   0.6697050000000000    0.6697050000000000    0.6763850000000000 O
   0.3302950000000000    0.3302950000000000    0.3236150000000000 O
   0.8251550000000000    0.8251550000000000    0.0349760000000000 O
   0.8248770000000000    0.3430090000000000    0.5231060000000000 O
   0.3430090000000000    0.8248770000000000    0.5231060000000000 O
   0.1751230000000000    0.6569910000000000    0.4768940000000000 O
   0.1748450000000000    0.1748450000000000    0.9650240000000000 O
   0.6569910000000000    0.1751230000000000    0.4768940000000000 O
