Cs2 Li1 I2 O6
1.0
   4.9467030000000003    0.2863010000000000    0.0000000000000000
   0.3034140000000000    7.1627060000000000    0.0000000000000000
   0.0000000000000000    0.0000000000000000    6.5583999999999998
Cs Li I O
2 1 2 6
direct
   0.5227900000000000    0.5755020000000000    0.0000000000000000 Cs
   0.4728430000000000    0.9845760000000000    0.5000000000000000 Cs
   0.2838770000000000    0.2173380000000000    0.0000000000000000 Li
   0.9379310000000000    0.9900260000000000    0.0000000000000000 I
   0.9645810000000000    0.4900090000000000    0.5000000000000000 I
   0.5958930000000000    0.4821130000000000    0.5000000000000000 O
   0.0022350000000000    0.6510800000000000    0.2847020000000000 O
   0.0022350000000000    0.6510800000000000    0.7152980000000000 O
   0.9845020000000000    0.1701840000000000    0.7929360000000000 O
   0.5125000000000000    0.9939070000000000    0.0000000000000000 O
   0.9845020000000000    0.1701840000000000    0.2070640000000000 O
