pymatgen with grid density = 1155 / number of atoms
0
Gamma
1 3 2
