Li2 U2 P2 H16 O20
1.0
   6.8737655999999996    0.0000006200000000    0.0000000000000000
  -0.0000006200000000    6.8737655999999996   -0.0000000000000000
   0.0000000000000000   -0.0000000000000000    9.0436123700000000
Li U P H O
2 2 2 16 20
direct
   0.0000000000000000    0.0000000000000000    0.5000000000000000 Li
   0.5000000000000000    0.5000000000000000    0.5000000000000000 Li
   0.5000000000000000    0.0000000000000000    0.1015468000000000 U
   0.0000000000000000    0.5000000000000000    0.8984532000000000 U
   0.0000000000000000    0.0000000000000000    0.0000000000000000 P
   0.5000000000000000    0.5000000000000000    0.0000000000000000 P
   0.5831070900000001    0.3271216900000000    0.7302039700000000 H
   0.1687559400000000    0.3562329400000000    0.3816156100000000 H
   0.6437670599999999    0.1687559400000000    0.6183843900000000 H
   0.9168929099999999    0.1728783100000000    0.2697960300000000 H
   0.1437670600000000    0.6687559400000000    0.3816156100000000 H
   0.1728783100000000    0.0831070900000000    0.7302039700000000 H
   0.8271216900000000    0.9168929099999999    0.7302039700000000 H
   0.6687559400000000    0.8562329400000001    0.6183843900000000 H
   0.4168929100000000    0.6728783100000000    0.7302039700000000 H
   0.8562329400000001    0.3312440600000000    0.3816156100000000 H
   0.3312440600000000    0.1437670600000000    0.6183843900000000 H
   0.3271216900000000    0.4168929100000000    0.2697960300000000 H
   0.0831070900000000    0.8271216900000000    0.2697960300000000 H
   0.6728783100000000    0.5831070900000001    0.2697960300000000 H
   0.3562329400000000    0.8312440600000000    0.6183843900000000 H
   0.8312440600000000    0.6437670599999999    0.3816156100000000 H
   0.4448461800000000    0.3295502000000000    0.1013879400000000 O
   0.5000000000000000    0.0000000000000000    0.9027176700000000 O
   0.1704498000000000    0.9448461800000000    0.1013879400000000 O
   0.5551538200000000    0.6704498000000000    0.1013879400000000 O
   0.4447582300000000    0.7196122300000000    0.6300281100000000 O
   0.6704498000000000    0.4448461800000000    0.8986120600000000 O
   0.7803877700000000    0.9447582300000000    0.6300281100000000 O
   0.0000000000000000    0.5000000000000000    0.0972823300000000 O
   0.5552417700000000    0.2803877700000000    0.6300281100000000 O
   0.2196122300000000    0.0552417700000000    0.6300281100000000 O
   0.8295502000000000    0.0551538200000000    0.1013879400000000 O
   0.0000000000000000    0.5000000000000000    0.6995219100000000 O
   0.5000000000000000    0.0000000000000000    0.3004780900000000 O
   0.7196122300000000    0.5552417700000000    0.3699718900000000 O
   0.9447582300000000    0.2196122300000000    0.3699718900000000 O
   0.2803877700000000    0.4447582300000000    0.3699718900000000 O
   0.3295502000000000    0.5551538200000000    0.8986120600000000 O
   0.0552417700000000    0.7803877700000000    0.3699718900000000 O
   0.9448461800000000    0.8295502000000000    0.8986120600000000 O
   0.0551538200000000    0.1704498000000000    0.8986120600000000 O
