pymatgen with grid density = 1212 / number of atoms
0
Gamma
4 4 2
