Li3 Al3 Si3 O12
1.0
   2.6753610000000001   -4.6338619999999997    0.0000000000000000
   2.6753610000000001    4.6338619999999997    0.0000000000000000
   0.0000000000000000    0.0000000000000000   11.0946020000000001
Li Al Si O
3 3 3 12
direct
   0.0000000000000000    0.0000000000000000    0.8333330000000000 Li
   0.0000000000000000    0.0000000000000000    0.1666670000000000 Li
   0.0000000000000000    0.0000000000000000    0.5000000000000000 Li
   0.5000000000000000    0.5000000000000000    0.8333330000000000 Al
   0.0000000000000000    0.5000000000000000    0.1666670000000000 Al
   0.5000000000000000    0.0000000000000000    0.5000000000000000 Al
   0.0000000000000000    0.5000000000000000    0.6666670000000000 Si
   0.5000000000000000    0.0000000000000000    0.0000000000000000 Si
   0.5000000000000000    0.5000000000000000    0.3333330000000000 Si
   0.7856919999999999    0.1855130000000000    0.0844530000000000 O
   0.6001790000000000    0.7856919999999999    0.4177860000000000 O
   0.1855130000000000    0.7856919999999999    0.5822140000000000 O
   0.3998210000000000    0.2143080000000000    0.4177860000000000 O
   0.7856919999999999    0.6001790000000000    0.2488800000000000 O
   0.8144870000000000    0.6001790000000000    0.7511200000000000 O
   0.1855130000000000    0.3998210000000000    0.7511200000000000 O
   0.3998210000000000    0.1855130000000000    0.9155470000000000 O
   0.2143080000000000    0.3998210000000000    0.2488800000000000 O
   0.2143080000000000    0.8144870000000000    0.0844530000000000 O
   0.8144870000000000    0.2143080000000000    0.5822140000000000 O
   0.6001790000000000    0.8144870000000000    0.9155470000000000 O
