pymatgen with grid density = 1045 / number of atoms
0
Gamma
2 2 1
