Li4 Al4 Si4 O20
1.0
   5.0467230000000001    0.0000000000000000    0.0000000000000000
   0.0000000000000000    8.2704109999999993    0.0000000000000000
   0.0000000000000000    0.0000000000000000   10.4705169999999992
Li Al Si O
4 4 4 20
direct
   0.7450059999999999    0.1885720000000000    0.6885490000000000 Li
   0.2450060000000000    0.8114280000000000    0.3114510000000000 Li
   0.2450060000000000    0.6885720000000000    0.8114510000000000 Li
   0.7450059999999999    0.3114280000000000    0.1885490000000000 Li
   0.7495550000000000    0.5815310000000000    0.6595720000000000 Al
   0.2495540000000000    0.4184690000000000    0.3404280000000000 Al
   0.2495540000000000    0.0815310000000000    0.8404280000000000 Al
   0.7495550000000000    0.9184690000000000    0.1595720000000000 Al
   0.7501409999999999    0.8742410000000000    0.8546570000000000 Si
   0.2501410000000000    0.1257590000000000    0.1453430000000000 Si
   0.2501410000000000    0.3742410000000000    0.6453430000000000 Si
   0.7501409999999999    0.6257590000000000    0.3546570000000000 Si
   0.8013690000000000    0.6578750000000000    0.5056100000000000 O
   0.3013690000000000    0.3421250000000000    0.4943900000000000 O
   0.3013690000000000    0.1578750000000000    0.9943900000000000 O
   0.8013690000000000    0.8421250000000000    0.0056100000000000 O
   0.8656430000000001    0.7196750000000000    0.7743719999999999 O
   0.3656430000000000    0.2803250000000000    0.2256280000000000 O
   0.3656430000000000    0.2196750000000000    0.7256280000000001 O
   0.8656430000000001    0.7803250000000000    0.2743720000000000 O
   0.4108270000000000    0.5384560000000000    0.6904760000000000 O
   0.9108270000000001    0.4615440000000000    0.3095240000000000 O
   0.9108270000000001    0.0384560000000000    0.8095240000000000 O
   0.4108270000000000    0.9615440000000000    0.1904760000000000 O
   0.9329130000000000    0.3987730000000000    0.6773560000000000 O
   0.4329130000000000    0.6012270000000000    0.3226440000000000 O
   0.4329130000000000    0.8987730000000000    0.8226440000000000 O
   0.9329130000000000    0.1012270000000000    0.1773560000000000 O
   0.2371440000000000    0.5890010000000000    0.9903340000000000 O
   0.7371440000000000    0.4109990000000000    0.0096660000000000 O
   0.7371440000000000    0.0890010000000000    0.5096660000000000 O
   0.2371440000000000    0.9109990000000000    0.4903340000000000 O
