pymatgen with grid density = 1139 / number of atoms
0
Monkhorst
2 4 2
