Li4 Cd8 H4 Se8 O28
1.0
  10.4648190000000003    0.0000000000000000    0.0000000000000000
   0.0000000000000000    5.9165159999999997    0.0000000000000000
   0.0000000000000000    0.1027020000000000   11.7024329999999992
Li Cd H Se O
4 8 4 8 28
direct
   0.8116160000000000    0.6290260000000000    0.8607470000000000 Li
   0.3116160000000000    0.3709740000000000    0.6392530000000000 Li
   0.1883840000000000    0.3709740000000000    0.1392530000000000 Li
   0.6883840000000000    0.6290260000000000    0.3607470000000000 Li
   0.8970430000000000    0.3808990000000000    0.6045640000000000 Cd
   0.3970430000000000    0.6191010000000000    0.8954360000000000 Cd
   0.1029570000000000    0.6191010000000000    0.3954360000000000 Cd
   0.6029570000000000    0.3808990000000000    0.1045640000000000 Cd
   0.1181060000000000    0.8523040000000000    0.7051620000000000 Cd
   0.6181060000000000    0.1476960000000000    0.7948380000000000 Cd
   0.8818940000000000    0.1476960000000000    0.2948380000000000 Cd
   0.3818940000000000    0.8523040000000000    0.2051620000000000 Cd
   0.9173050000000000    0.8280610000000000    0.5448980000000000 H
   0.4173050000000000    0.1719390000000000    0.9551020000000000 H
   0.0826950000000000    0.1719390000000000    0.4551020000000000 H
   0.5826950000000000    0.8280610000000000    0.0448980000000000 H
   0.6653720000000000    0.1044120000000000    0.4983830000000000 Se
   0.1653720000000000    0.8955880000000001    0.0016170000000000 Se
   0.3346280000000000    0.8955880000000001    0.5016170000000000 Se
   0.8346280000000000    0.1044120000000000    0.9983830000000000 Se
   0.5893990000000000    0.6215570000000000    0.6559820000000000 Se
   0.0893990000000000    0.3784430000000000    0.8440180000000000 Se
   0.4106010000000000    0.3784430000000000    0.3440180000000000 Se
   0.9106010000000000    0.6215570000000000    0.1559820000000000 Se
   0.7457560000000000    0.0586750000000000    0.6264150000000001 O
   0.2457560000000000    0.9413250000000000    0.8735849999999999 O
   0.2542440000000000    0.9413250000000000    0.3735850000000000 O
   0.7542440000000000    0.0586750000000000    0.1264150000000000 O
   0.7295370000000000    0.3651180000000000    0.4619750000000000 O
   0.2295370000000000    0.6348819999999999    0.0380250000000000 O
   0.2704630000000000    0.6348819999999999    0.5380250000000000 O
   0.7704630000000000    0.3651180000000000    0.9619750000000000 O
   0.7493300000000001    0.9294930000000000    0.4073610000000000 O
   0.2493300000000000    0.0705070000000000    0.0926390000000000 O
   0.2506700000000000    0.0705070000000000    0.5926390000000000 O
   0.7506699999999999    0.9294930000000000    0.9073610000000000 O
   0.4971460000000000    0.3802980000000000    0.6692730000000000 O
   0.9971460000000000    0.6197020000000000    0.8307270000000000 O
   0.5028540000000000    0.6197020000000000    0.3307270000000000 O
   0.0028540000000000    0.3802980000000000    0.1692730000000000 O
   0.7251930000000000    0.5213490000000000    0.7239180000000000 O
   0.2251930000000000    0.4786510000000000    0.7760820000000000 O
   0.2748070000000000    0.4786510000000000    0.2760820000000000 O
   0.7748070000000000    0.5213490000000000    0.2239180000000000 O
   0.5174750000000000    0.7953680000000000    0.7575940000000000 O
   0.0174750000000000    0.2046320000000000    0.7424060000000000 O
   0.4825250000000000    0.2046320000000000    0.2424060000000000 O
   0.9825250000000000    0.7953680000000000    0.2575940000000000 O
   0.9878930000000000    0.7236850000000000    0.5603150000000000 O
   0.4878930000000000    0.2763150000000000    0.9396850000000000 O
   0.0121070000000000    0.2763150000000000    0.4396850000000000 O
   0.5121070000000000    0.7236850000000000    0.0603150000000000 O
