pymatgen with grid density = 1083 / number of atoms
0
Monkhorst
2 4 2
