Sr32 Li8 B24 O72
1.0
  -7.5540300000000000    7.5540300000000000    7.5540300000000000
   7.5540300000000000   -7.5540300000000000    7.5540300000000000
   7.5540300000000000    7.5540300000000000   -7.5540300000000000
Sr Li B O
32 8 24 72
direct
   0.9965810000000001    0.7465810000000001    0.2500000000000000 Sr
   0.7534189999999999    0.5034189999999999    0.2500000000000000 Sr
   0.2500000000000000    0.4965810000000000    0.2465810000000000 Sr
   0.2465810000000000    0.4965810000000000    0.7500000000000000 Sr
   0.0034190000000000    0.2534190000000000    0.7500000000000000 Sr
   0.2500000000000000    0.9965810000000001    0.7465810000000001 Sr
   0.7500000000000000    0.0034190000000000    0.2534190000000000 Sr
   0.7465810000000001    0.9965810000000001    0.7500000000000000 Sr
   0.7465810000000001    0.2500000000000000    0.9965810000000001 Sr
   0.9965810000000001    0.7500000000000000    0.7465810000000001 Sr
   0.4965810000000000    0.2465810000000000    0.2500000000000000 Sr
   0.0000000000000000    0.0000000000000000    0.0000000000000000 Sr
   0.0000000000000000    0.5000000000000000    0.5000000000000000 Sr
   0.7500000000000000    0.7465810000000001    0.9965810000000001 Sr
   0.0000000000000000    0.0000000000000000    0.5000000000000000 Sr
   0.7500000000000000    0.5034189999999999    0.7534189999999999 Sr
   0.2534190000000000    0.0034190000000000    0.2500000000000000 Sr
   0.7500000000000000    0.2465810000000000    0.4965810000000000 Sr
   0.2534190000000000    0.7500000000000000    0.0034190000000000 Sr
   0.2500000000000000    0.7534189999999999    0.5034189999999999 Sr
   0.4965810000000000    0.7500000000000000    0.2465810000000000 Sr
   0.5034189999999999    0.2500000000000000    0.7534189999999999 Sr
   0.0034190000000000    0.2500000000000000    0.2534190000000000 Sr
   0.5000000000000000    0.0000000000000000    0.0000000000000000 Sr
   0.0000000000000000    0.5000000000000000    0.0000000000000000 Sr
   0.5000000000000000    0.5000000000000000    0.0000000000000000 Sr
   0.7534189999999999    0.7500000000000000    0.5034189999999999 Sr
   0.2500000000000000    0.2534190000000000    0.0034190000000000 Sr
   0.5000000000000000    0.5000000000000000    0.5000000000000000 Sr
   0.5000000000000000    0.0000000000000000    0.5000000000000000 Sr
   0.2465810000000000    0.2500000000000000    0.4965810000000000 Sr
   0.5034189999999999    0.7534189999999999    0.7500000000000000 Sr
   0.2500000000000000    0.2500000000000000    0.2500000000000000 Li
   0.5000000000000000    0.0000000000000000    0.7500000000000000 Li
   0.2500000000000000    0.5000000000000000    0.0000000000000000 Li
   0.7500000000000000    0.7500000000000000    0.7500000000000000 Li
   0.5000000000000000    0.0000000000000000    0.2500000000000000 Li
   0.0000000000000000    0.2500000000000000    0.5000000000000000 Li
   0.0000000000000000    0.7500000000000000    0.5000000000000000 Li
   0.7500000000000000    0.5000000000000000    0.0000000000000000 Li
   0.7649010000000001    0.7350989999999999    0.2500000000000000 B
   0.0298030000000000    0.2649010000000000    0.0149010000000000 B
   0.4850990000000000    0.2350990000000000    0.4701970000000000 B
   0.2649010000000000    0.0149010000000000    0.0298030000000000 B
   0.4701970000000000    0.4850990000000000    0.2350990000000000 B
   0.2649010000000000    0.7500000000000000    0.2350990000000000 B
   0.5149010000000001    0.2500000000000000    0.9850989999999999 B
   0.2350990000000000    0.2649010000000000    0.7500000000000000 B
   0.9701970000000000    0.7350989999999999    0.9850989999999999 B
   0.7649010000000001    0.5298030000000000    0.5149010000000001 B
   0.2350990000000000    0.4701970000000000    0.4850990000000000 B
   0.9850989999999999    0.9701970000000000    0.7350989999999999 B
   0.0149010000000000    0.4850990000000000    0.7500000000000000 B
   0.5149010000000001    0.7649010000000001    0.5298030000000000 B
   0.0149010000000000    0.0298030000000000    0.2649010000000000 B
   0.7500000000000000    0.0149010000000000    0.4850990000000000 B
   0.7350989999999999    0.9850989999999999    0.9701970000000000 B
   0.2500000000000000    0.9850989999999999    0.5149010000000001 B
   0.4850990000000000    0.7500000000000000    0.0149010000000000 B
   0.7350989999999999    0.2500000000000000    0.7649010000000001 B
   0.7500000000000000    0.2350990000000000    0.2649010000000000 B
   0.9850989999999999    0.5149010000000001    0.2500000000000000 B
   0.5298030000000000    0.5149010000000001    0.7649010000000001 B
   0.2500000000000000    0.7649010000000001    0.7350989999999999 B
   0.2005660000000000    0.9505660000000000    0.9011320000000000 O
   0.0494340000000000    0.4505660000000000    0.2500000000000000 O
   0.8978850000000000    0.9010800000000000    0.7595370000000000 O
   0.6415430000000000    0.0031950000000000    0.9010800000000000 O
   0.6415430000000000    0.1383480000000000    0.7404630000000000 O
   0.4505660000000000    0.7005660000000000    0.4011320000000000 O
   0.1415430000000000    0.2404630000000000    0.6383480000000000 O
   0.6021150000000000    0.7404630000000000    0.5989200000000000 O
   0.5031949999999999    0.1415430000000000    0.4010800000000000 O
   0.3616520000000000    0.8584570000000000    0.7595370000000000 O
   0.2595370000000000    0.3584570000000000    0.8616520000000000 O
   0.6383480000000000    0.1415430000000000    0.2404630000000000 O
   0.7500000000000000    0.9505660000000000    0.5494340000000000 O
   0.3584570000000000    0.9968050000000001    0.0989200000000000 O
   0.9505660000000000    0.9011320000000000    0.2005660000000000 O
   0.4968050000000000    0.8584570000000000    0.5989200000000000 O
   0.8978850000000000    0.4968050000000000    0.1383480000000000 O
   0.4011320000000000    0.4505660000000000    0.7005660000000000 O
   0.3616520000000000    0.0031950000000000    0.6021150000000000 O
   0.5494340000000000    0.2994340000000000    0.5988680000000000 O
   0.8584570000000000    0.7595370000000000    0.3616520000000000 O
   0.7595370000000000    0.8978850000000000    0.9010800000000000 O
   0.0031950000000000    0.6021150000000000    0.3616520000000000 O
   0.0031950000000000    0.9010800000000000    0.6415430000000000 O
   0.2994340000000000    0.5988680000000000    0.5494340000000000 O
   0.4010800000000000    0.5031949999999999    0.1415430000000000 O
   0.7404630000000000    0.6415430000000000    0.1383480000000000 O
   0.9968050000000001    0.0989200000000000    0.3584570000000000 O
   0.4010800000000000    0.3978850000000000    0.2595370000000000 O
   0.5031949999999999    0.8616520000000000    0.1021150000000000 O
   0.4505660000000000    0.2500000000000000    0.0494340000000000 O
   0.8616520000000000    0.2595370000000000    0.3584570000000000 O
   0.5494340000000000    0.7500000000000000    0.9505660000000000 O
   0.9010800000000000    0.6415430000000000    0.0031950000000000 O
   0.0494340000000000    0.0988680000000000    0.7994340000000000 O
   0.6383480000000000    0.9968050000000001    0.3978850000000000 O
   0.8584570000000000    0.5989200000000000    0.4968050000000000 O
   0.1383480000000000    0.7404630000000000    0.6415430000000000 O
   0.0989200000000000    0.2404630000000000    0.1021150000000000 O
   0.3978850000000000    0.6383480000000000    0.9968050000000001 O
   0.7404630000000000    0.5989200000000000    0.6021150000000000 O
   0.7595370000000000    0.3616520000000000    0.8584570000000000 O
   0.7005660000000000    0.7994340000000000    0.2500000000000000 O
   0.1021150000000000    0.0989200000000000    0.2404630000000000 O
   0.2404630000000000    0.6383480000000000    0.1415430000000000 O
   0.5989200000000000    0.6021150000000000    0.7404630000000000 O
   0.2005660000000000    0.7500000000000000    0.2994340000000000 O
   0.2500000000000000    0.0494340000000000    0.4505660000000000 O
   0.5989200000000000    0.4968050000000000    0.8584570000000000 O
   0.2994340000000000    0.2005660000000000    0.7500000000000000 O
   0.1383480000000000    0.8978850000000000    0.4968050000000000 O
   0.7994340000000000    0.2500000000000000    0.7005660000000000 O
   0.5988680000000000    0.5494340000000000    0.2994340000000000 O
   0.9010800000000000    0.7595370000000000    0.8978850000000000 O
   0.7994340000000000    0.0494340000000000    0.0988680000000000 O
   0.1415430000000000    0.4010800000000000    0.5031949999999999 O
   0.4968050000000000    0.1383480000000000    0.8978850000000000 O
   0.3584570000000000    0.8616520000000000    0.2595370000000000 O
   0.9011320000000000    0.2005660000000000    0.9505660000000000 O
   0.7500000000000000    0.2994340000000000    0.2005660000000000 O
   0.1021150000000000    0.5031949999999999    0.8616520000000000 O
   0.0989200000000000    0.3584570000000000    0.9968050000000001 O
   0.8616520000000000    0.1021150000000000    0.5031949999999999 O
   0.9968050000000001    0.3978850000000000    0.6383480000000000 O
   0.3978850000000000    0.2595370000000000    0.4010800000000000 O
   0.7005660000000000    0.4011320000000000    0.4505660000000000 O
   0.2500000000000000    0.7005660000000000    0.7994340000000000 O
   0.2595370000000000    0.4010800000000000    0.3978850000000000 O
   0.2404630000000000    0.1021150000000000    0.0989200000000000 O
   0.9505660000000000    0.5494340000000000    0.7500000000000000 O
   0.0988680000000000    0.7994340000000000    0.0494340000000000 O
   0.6021150000000000    0.3616520000000000    0.0031950000000000 O
