pymatgen with grid density = 1852 / number of atoms
0
Gamma
3 5 2
