K3 Li3 Sb9 O24
1.0
   8.8037379999999992    0.0000000000000000    0.0000000000000000
  -3.3107899999999999    8.1607660000000006    0.0000000000000000
  -2.6917119999999999   -4.1132429999999998    7.4970489999999996
K Li Sb O
3 3 9 24
direct
   0.9512500000000000    0.9123640000000000    0.9290690000000000 K
   0.4783060000000000    0.4734380000000000    0.0169770000000000 K
   0.0909460000000000    0.0813620000000000    0.0385550000000000 K
   0.8123410000000000    0.6077620000000000    0.5426600000000000 Li
   0.4275490000000000    0.2231000000000000    0.5416460000000000 Li
   0.4510920000000000    0.9700550000000000    0.7472259999999999 Li
   0.6706490000000001    0.1533020000000000    0.1663470000000000 Sb
   0.5562680000000000    0.6734700000000000    0.4777750000000000 Sb
   0.1289310000000000    0.3170020000000000    0.5172230000000000 Sb
   0.1859880000000000    0.0010650000000000    0.4917320000000000 Sb
   0.0004520000000000    0.5086900000000000    0.8237980000000000 Sb
   0.6815180000000000    0.1899290000000000    0.8239290000000000 Sb
   0.0351060000000000    0.6743670000000000    0.3176800000000000 Sb
   0.0097910000000000    0.4916720000000000    0.1664880000000000 Sb
   0.7924040000000000    0.9802840000000000    0.5180210000000000 Sb
   0.4851680000000000    0.7630460000000000    0.3466460000000000 O
   0.1717470000000000    0.2218030000000000    0.6354980000000000 O
   0.8161280000000000    0.8749070000000000    0.6572640000000000 O
   0.5846760000000000    0.2068840000000000    0.2901830000000000 O
   0.0663260000000000    0.4300690000000000    0.7218130000000000 O
   0.7840740000000000    0.1783350000000000    0.6887150000000000 O
   0.4457010000000000    0.4074550000000000    0.3645290000000000 O
   0.1644880000000000    0.8686739999999999    0.6399740000000000 O
   0.8740040000000000    0.5777780000000000    0.6398530000000000 O
   0.0506340000000000    0.4102190000000000    0.0670140000000000 O
   0.4319540000000000    0.7660350000000000    0.0245080000000000 O
   0.8205789999999999    0.1557890000000000    0.0251030000000000 O
   0.2635970000000000    0.9168930000000000    0.9532980000000000 O
   0.8828740000000000    0.5371680000000000    0.9537600000000001 O
   0.5746930000000000    0.2060740000000000    0.9602910000000000 O
   0.0529330000000000    0.3730990000000000    0.4119090000000000 O
   0.8567990000000000    0.1353290000000000    0.3478320000000000 O
   0.5332080000000000    0.5834690000000000    0.6353540000000000 O
   0.2586180000000000    0.8956800000000000    0.3090910000000000 O
   0.8419219999999999    0.4801600000000000    0.3069060000000000 O
   0.4174160000000000    0.8116910000000001    0.6889050000000000 O
   0.9577520000000000    0.8744170000000000    0.2766620000000000 O
   0.1607670000000000    0.1225770000000000    0.3647780000000000 O
   0.6175550000000000    0.3307880000000000    0.5709880000000001 O
