K8 Li12 B4 P16 O56
1.0
   7.0845589999999996  -12.1992259999999995    0.0000000000000000
   7.0845589999999996   12.1992259999999995    0.0000000000000000
   0.0000000000000000    0.0000000000000000    7.0004520000000001
K Li B P O
8 12 4 16 56
direct
   0.5919800000000000    0.0919800000000000    0.7500000000000000 K
   0.9080200000000000    0.4080200000000000    0.2500000000000000 K
   0.4080200000000000    0.9080200000000000    0.2500000000000000 K
   0.0919800000000000    0.5919800000000000    0.7500000000000000 K
   0.6089700000000000    0.6089700000000000    0.6982630000000000 K
   0.3910300000000000    0.3910300000000000    0.3017370000000000 K
   0.8910300000000000    0.8910300000000000    0.1982630000000000 K
   0.1089700000000000    0.1089700000000000    0.8017370000000000 K
   0.6296490000000000    0.8986620000000000    0.9741720000000000 Li
   0.1013380000000000    0.3703510000000000    0.0258280000000000 Li
   0.6013380000000000    0.8703510000000000    0.4741720000000000 Li
   0.1296490000000000    0.3986620000000000    0.5258280000000000 Li
   0.3703510000000000    0.1013380000000000    0.0258280000000000 Li
   0.8986620000000000    0.6296490000000000    0.9741720000000000 Li
   0.3986620000000000    0.1296490000000000    0.5258280000000000 Li
   0.8703510000000000    0.6013380000000000    0.4741720000000000 Li
   0.8821560000000001    0.1178440000000000    0.0000000000000000 Li
   0.3821560000000000    0.6178439999999999    0.5000000000000000 Li
   0.1178440000000000    0.8821560000000001    0.0000000000000000 Li
   0.6178439999999999    0.3821560000000000    0.5000000000000000 Li
   0.8811470000000000    0.1188530000000000    0.5000000000000000 B
   0.3811470000000000    0.6188530000000000    0.0000000000000000 B
   0.1188530000000000    0.8811470000000000    0.5000000000000000 B
   0.6188530000000000    0.3811470000000000    0.0000000000000000 B
   0.7999010000000000    0.9236620000000000    0.6970610000000000 P
   0.0763380000000000    0.2000990000000000    0.3029390000000000 P
   0.5763380000000000    0.7000990000000000    0.1970610000000000 P
   0.2999010000000000    0.4236620000000000    0.8029390000000000 P
   0.2000990000000000    0.0763380000000000    0.3029390000000000 P
   0.9236620000000000    0.7999010000000000    0.6970610000000000 P
   0.4236620000000000    0.2999010000000000    0.8029390000000000 P
   0.7000990000000000    0.5763380000000000    0.1970610000000000 P
   0.4041570000000000    0.7844420000000000    0.7572360000000000 P
   0.2155580000000000    0.5958430000000000    0.2427640000000000 P
   0.7155580000000000    0.0958430000000000    0.2572360000000000 P
   0.9041570000000000    0.2844420000000000    0.7427640000000000 P
   0.5958430000000000    0.2155580000000000    0.2427640000000000 P
   0.7844420000000000    0.4041570000000000    0.7572360000000000 P
   0.2844420000000000    0.9041570000000000    0.7427640000000000 P
   0.0958430000000000    0.7155580000000000    0.2572360000000000 P
   0.8645969999999999    0.9834570000000000    0.8700230000000000 O
   0.0165430000000000    0.1354030000000000    0.1299770000000000 O
   0.5165430000000000    0.6354030000000001    0.3700230000000000 O
   0.3645970000000000    0.4834570000000000    0.6299770000000000 O
   0.1354030000000000    0.0165430000000000    0.1299770000000000 O
   0.9834570000000000    0.8645969999999999    0.8700230000000000 O
   0.4834570000000000    0.3645970000000000    0.6299770000000000 O
   0.6354030000000001    0.5165430000000000    0.3700230000000000 O
   0.8326420000000000    0.9986120000000001    0.5132540000000000 O
   0.0013880000000000    0.1673580000000000    0.4867460000000000 O
   0.5013879999999999    0.6673580000000000    0.0132540000000000 O
   0.3326420000000000    0.4986120000000000    0.9867460000000000 O
   0.1673580000000000    0.0013880000000000    0.4867460000000000 O
   0.9986120000000001    0.8326420000000000    0.5132540000000000 O
   0.4986120000000000    0.3326420000000000    0.9867460000000000 O
   0.6673580000000000    0.5013879999999999    0.0132540000000000 O
   0.8312740000000000    0.8312740000000000    0.6292020000000000 O
   0.1687260000000000    0.1687260000000000    0.3707980000000000 O
   0.6687260000000000    0.6687260000000000    0.1292020000000000 O
   0.3312740000000000    0.3312740000000000    0.8707980000000000 O
   0.6764450000000000    0.8618110000000000    0.7165010000000001 O
   0.1381890000000000    0.3235550000000000    0.2834990000000000 O
   0.6381890000000000    0.8235550000000000    0.2165010000000000 O
   0.1764450000000000    0.3618110000000000    0.7834989999999999 O
   0.3235550000000000    0.1381890000000000    0.2834990000000000 O
   0.8618110000000000    0.6764450000000000    0.7165010000000001 O
   0.3618110000000000    0.1764450000000000    0.7834989999999999 O
   0.8235550000000000    0.6381890000000000    0.2165010000000000 O
   0.4813970000000000    0.8684030000000000    0.8976180000000000 O
   0.1315970000000000    0.5186030000000000    0.1023820000000000 O
   0.6315970000000000    0.0186030000000000    0.3976180000000000 O
   0.9813970000000000    0.3684030000000000    0.6023820000000000 O
   0.5186030000000000    0.1315970000000000    0.1023820000000000 O
   0.8684030000000000    0.4813970000000000    0.8976180000000000 O
   0.3684030000000000    0.9813970000000000    0.6023820000000000 O
   0.0186030000000000    0.6315970000000000    0.3976180000000000 O
   0.2918110000000000    0.7918110000000000    0.7500000000000000 O
   0.2081890000000000    0.7081890000000000    0.2500000000000000 O
   0.7081890000000000    0.2081890000000000    0.2500000000000000 O
   0.7918110000000000    0.2918110000000000    0.7500000000000000 O
   0.3555620000000000    0.6619650000000000    0.8269060000000000 O
   0.3380350000000000    0.6444380000000000    0.1730940000000000 O
   0.8380350000000000    0.1444380000000000    0.3269060000000000 O
   0.8555620000000000    0.1619650000000000    0.6730940000000000 O
   0.6444380000000000    0.3380350000000000    0.1730940000000000 O
   0.6619650000000000    0.3555620000000000    0.8269060000000000 O
   0.1619650000000000    0.8555620000000000    0.6730940000000000 O
   0.1444380000000000    0.8380350000000000    0.3269060000000000 O
   0.4431700000000000    0.7890270000000000    0.5539090000000000 O
   0.2109730000000000    0.5568300000000000    0.4460910000000000 O
   0.7109730000000000    0.0568300000000000    0.0539090000000000 O
   0.9431700000000000    0.2890270000000000    0.9460910000000000 O
   0.5568300000000000    0.2109730000000000    0.4460910000000000 O
   0.7890270000000000    0.4431700000000000    0.5539090000000000 O
   0.2890270000000000    0.9431700000000000    0.9460910000000000 O
   0.0568300000000000    0.7109730000000000    0.0539090000000000 O
