Li2 Bi2 B4 O12
1.0
   5.9867379999999999    0.0000000000000000    0.0000000000000000
   0.0000000000000000    4.6208780000000003    0.0000000000000000
   0.0000000000000000    4.2344299999999997    8.0335929999999998
Li Bi B O
2 2 4 12
direct
   0.5000000000000000    0.5000000000000000    0.5000000000000000 Li
   0.0000000000000000    0.5000000000000000    0.0000000000000000 Li
   0.5000000000000000    0.0000000000000000    0.0000000000000000 Bi
   0.0000000000000000    0.0000000000000000    0.5000000000000000 Bi
   0.1388880000000000    0.7356670000000000    0.2595880000000000 B
   0.6388880000000000    0.2643330000000000    0.2404120000000000 B
   0.3611120000000000    0.7356670000000000    0.7595880000000000 B
   0.8611120000000000    0.2643330000000000    0.7404120000000000 B
   0.4458900000000000    0.0111110000000000    0.7625650000000000 O
   0.1878630000000000    0.7575330000000000    0.1047140000000000 O
   0.1836800000000000    0.4538000000000000    0.4061230000000000 O
   0.6836800000000000    0.5462000000000000    0.0938770000000000 O
   0.6878630000000000    0.2424670000000000    0.3952860000000000 O
   0.9458900000000000    0.9888890000000000    0.7374350000000000 O
   0.0541100000000000    0.0111110000000000    0.2625650000000000 O
   0.3121370000000000    0.7575330000000000    0.6047140000000000 O
   0.3163200000000000    0.4538000000000000    0.9061230000000000 O
   0.8163200000000000    0.5462000000000000    0.5938770000000000 O
   0.8121370000000000    0.2424670000000000    0.8952860000000000 O
   0.5541100000000000    0.9888890000000000    0.2374350000000000 O
