Li1 Mg14 B1 O15
1.0
   4.2860920000000000    0.0000000000000000    0.0000000000000000
   0.0000000000000000    8.4006720000000001    0.0000000000000000
   0.0000000000000000    0.0000000000000000    8.5810800000000000
Li Mg B O
1 14 1 15
direct
   0.0000000000000000    0.0000000000000000    0.0085060000000000 Li
   0.0000000000000000    0.5000000000000000    0.0015300000000000 Mg
   0.0000000000000000    0.0000000000000000    0.5087370000000000 Mg
   0.5000000000000000    0.7560920000000000    0.9999490000000000 Mg
   0.5000000000000000    0.2439080000000000    0.9999490000000000 Mg
   0.5000000000000000    0.7350900000000000    0.4992390000000000 Mg
   0.5000000000000000    0.2649100000000000    0.4992390000000000 Mg
   0.5000000000000000    0.0000000000000000    0.7530800000000000 Mg
   0.5000000000000000    0.5000000000000000    0.7451500000000000 Mg
   0.5000000000000000    0.0000000000000000    0.2473240000000000 Mg
   0.5000000000000000    0.5000000000000000    0.2491560000000000 Mg
   0.0000000000000000    0.7352370000000000    0.7569110000000000 Mg
   0.0000000000000000    0.2647630000000000    0.7569110000000000 Mg
   0.0000000000000000    0.7574660000000000    0.2423650000000000 Mg
   0.0000000000000000    0.2425340000000000    0.2423650000000000 Mg
   0.0000000000000000    0.5000000000000000    0.4407450000000000 B
   0.0000000000000000    0.5000000000000000    0.7722980000000000 O
   0.0000000000000000    0.0000000000000000    0.2730900000000000 O
   0.0000000000000000    0.5000000000000000    0.2675600000000000 O
   0.5000000000000000    0.7483649999999999    0.7458460000000000 O
   0.5000000000000000    0.2516350000000000    0.7458460000000000 O
   0.5000000000000000    0.7512190000000000    0.2527140000000000 O
   0.5000000000000000    0.2487810000000000    0.2527140000000000 O
   0.5000000000000000    0.0000000000000000    0.9978960000000000 O
   0.5000000000000000    0.5000000000000000    0.0107660000000000 O
   0.5000000000000000    0.0000000000000000    0.4997900000000000 O
   0.5000000000000000    0.5000000000000000    0.4875610000000000 O
   0.0000000000000000    0.7464540000000000    0.0050010000000000 O
   0.0000000000000000    0.2535460000000000    0.0050010000000000 O
   0.0000000000000000    0.6708420000000000    0.4913820000000000 O
   0.0000000000000000    0.3291580000000000    0.4913820000000000 O
