ALGO = Fast
EDIFF = 0.00055
ENCUT = 520
IBRION = 2
ISIF = 3
ISMEAR = -5
ISPIN = 2
LASPH = True
LORBIT = 11
LREAL = Auto
LWAVE = False
MAGMOM = 1*0.0 1*0.001 1*0.018 1*0.293 1*0.0 1*0.001 1*0.192 1*0.165 1*0.006 1*0.002 1*0.0
NELM = 100
NSW = 99
PREC = Accurate
SIGMA = 0.05
