ALGO = Fast
EDIFF = 0.0005
ENCUT = 520
IBRION = 2
ISIF = 3
ISMEAR = -5
ISPIN = 2
LASPH = True
LMAXMIX = 6
LORBIT = 11
LREAL = Auto
LWAVE = False
MAGMOM = 1*0.001 1*0.013 1*1.583 1*1.589 1*-0.054 1*-0.043 3*-0.054 1*-0.043
NELM = 100
NSW = 99
PREC = Accurate
SIGMA = 0.05
