pymatgen with grid density = 1244 / number of atoms
0
Monkhorst
8 2 4
