Sr1 Li1 U2 O6
1.0
   3.1936170000000002    0.0000000000000000    2.2553410000000000
  -0.1107400000000000    5.7589470000000000   10.3257200000000005
  -0.0738270000000000    0.0000000000000000    6.8838119999999998
Sr Li U O
1 1 2 6
direct
   0.0000000000000000    0.6666670000000000    0.0000000000000000 Sr
   0.5000000000000000    0.6666670000000000    0.5000000000000000 Li
   0.0000000000000000    0.0178530000000000    0.9732220000000000 U
   0.0000000000000000    0.3154800000000000    0.0267780000000000 U
   0.2702290000000000    0.3179240000000000    0.2527820000000000 O
   0.2121410000000000    0.6666670000000000    0.2880130000000000 O
   0.7297709999999999    0.0154090000000000    0.7472180000000000 O
   0.2702290000000000    0.0154090000000000    0.2065570000000000 O
   0.7297709999999999    0.3179240000000000    0.7934430000000000 O
   0.7878590000000000    0.6666670000000000    0.7119870000000000 O
