ALGO = Fast
EDIFF = 0.0026000000000000003
ENCUT = 520
IBRION = 2
ISIF = 3
ISMEAR = -5
ISPIN = 2
LASPH = True
LORBIT = 11
LREAL = Auto
LWAVE = False
MAGMOM = 32*0.0 4*-0.001 4*-0.0 4*-0.001 8*-0.0
NELM = 100
NSW = 99
PREC = Accurate
SIGMA = 0.05
