Li8 P4 H16 O24
1.0
   8.0032879999999995    0.0000000000000000    0.0000000000000000
   0.0000000000000000    5.2491339999999997    0.0000000000000000
  -6.1230229999999999    0.0000000000000000   12.4873080000000005
Li P H O
8 4 16 24
direct
   0.9908760000000000    0.4416290000000000    0.6759520000000000 Li
   0.9908760000000000    0.0583710000000000    0.1759520000000000 Li
   0.0091240000000000    0.5583710000000000    0.3240480000000000 Li
   0.0091240000000000    0.9416290000000000    0.8240480000000000 Li
   0.3945680000000000    0.4488680000000000    0.7543260000000001 Li
   0.3945680000000000    0.0511320000000000    0.2543260000000000 Li
   0.6054320000000000    0.5511320000000000    0.2456740000000000 Li
   0.6054320000000000    0.9488680000000000    0.7456739999999999 Li
   0.8248470000000000    0.4584310000000000    0.8424910000000000 P
   0.8248470000000000    0.0415690000000000    0.3424910000000000 P
   0.1751530000000000    0.5415690000000000    0.1575090000000000 P
   0.1751530000000000    0.9584310000000000    0.6575090000000000 P
   0.2478610000000000    0.4731630000000000    0.8936460000000001 H
   0.2478610000000000    0.0268370000000000    0.3936460000000000 H
   0.7521390000000000    0.5268370000000000    0.1063540000000000 H
   0.7521390000000000    0.9731630000000000    0.6063539999999999 H
   0.4563430000000000    0.3604510000000000    0.9548110000000000 H
   0.4563430000000000    0.1395490000000000    0.4548110000000000 H
   0.5436569999999999    0.6395490000000000    0.0451890000000000 H
   0.5436569999999999    0.8604510000000000    0.5451890000000000 H
   0.2157580000000000    0.9284440000000000    0.0280860000000000 H
   0.2157580000000000    0.5715560000000000    0.5280860000000001 H
   0.7842420000000000    0.0715560000000000    0.9719139999999999 H
   0.7842420000000000    0.4284440000000000    0.4719140000000000 H
   0.3058280000000000    0.0911530000000000    0.9689300000000000 H
   0.3058280000000000    0.4088470000000000    0.4689300000000000 H
   0.6941720000000000    0.9088470000000000    0.0310700000000000 H
   0.6941720000000000    0.5911530000000000    0.5310700000000000 H
   0.0968670000000000    0.4456550000000000    0.0310030000000000 O
   0.0968670000000000    0.0543450000000000    0.5310030000000000 O
   0.9031330000000000    0.5543450000000000    0.9689970000000000 O
   0.9031330000000000    0.9456550000000000    0.4689970000000000 O
   0.8150260000000000    0.1654890000000000    0.8415930000000000 O
   0.8150260000000000    0.3345110000000000    0.3415930000000000 O
   0.1849740000000000    0.8345110000000000    0.1584070000000000 O
   0.1849740000000000    0.6654890000000000    0.6584070000000000 O
   0.6372510000000000    0.5934340000000000    0.7975660000000000 O
   0.6372510000000000    0.9065660000000000    0.2975660000000000 O
   0.3627490000000000    0.4065660000000000    0.2024340000000000 O
   0.3627490000000000    0.0934340000000000    0.7024340000000000 O
   0.9599259999999999    0.5621460000000000    0.8012300000000000 O
   0.9599259999999999    0.9378540000000000    0.3012300000000000 O
   0.0400740000000000    0.4378540000000000    0.1987700000000000 O
   0.0400740000000000    0.0621460000000000    0.6987700000000000 O
   0.3622220000000000    0.4285760000000000    0.8876240000000000 O
   0.3622220000000000    0.0714240000000000    0.3876240000000000 O
   0.6377780000000000    0.5714240000000000    0.1123760000000000 O
   0.6377780000000000    0.9285760000000000    0.6123760000000000 O
   0.2436160000000000    0.9299470000000000    0.9655400000000000 O
   0.2436160000000000    0.5700530000000000    0.4655400000000000 O
   0.7563839999999999    0.0700530000000000    0.0344600000000000 O
   0.7563839999999999    0.4299470000000000    0.5344600000000000 O
