pymatgen with grid density = 865 / number of atoms
0
Gamma
7 4 3
