Li1 H1 C2 O4
1.0
   3.4788559999999999    0.0000000000000000    0.0000000000000000
   0.2448990000000000    6.1887189999999999    0.0000000000000000
   0.7967919999999999    1.9042289999999999    6.8173139999999997
Li H C O
1 1 2 4
direct
   0.4990450000000000    0.3473000000000000    0.5287690000000000 Li
   0.0024700000000000    0.3044740000000000    0.5315150000000000 H
   0.5304520000000000    0.4932740000000000    0.9567790000000000 C
   0.1226520000000000    0.9031709999999999    0.1897310000000000 C
   0.4380900000000000    0.5516670000000000    0.7968780000000000 O
   0.9906890000000000    0.9771960000000000    0.0397000000000000 O
   0.6201390000000000    0.4354500000000000    0.1177420000000000 O
   0.2574620000000000    0.8274680000000000    0.3378860000000000 O
