ALGO = Fast
EDIFF = 0.001
ENCUT = 520
IBRION = 2
ISIF = 3
ISMEAR = -5
ISPIN = 2
LASPH = True
LMAXMIX = 4
LORBIT = 11
LREAL = Auto
LWAVE = False
MAGMOM = 6*0.0 2*-0.018 4*0.076 4*0.167 4*0.18
NELM = 100
NSW = 99
PREC = Accurate
SIGMA = 0.05
