pymatgen with grid density = 1273 / number of atoms
0
Monkhorst
4 4 2
