Li1 Gd6 In2 O12
1.0
   6.8103290000000003   -0.1066140000000000   -0.1093160000000000
  -0.2612130000000000    6.8059880000000001   -0.1090930000000000
  -0.2614240000000000   -0.2672080000000000    6.8006310000000001
Li Gd In O
1 6 2 12
direct
   0.2140980000000000    0.2140810000000000    0.2139180000000000 Li
   0.0666190000000000    0.5878740000000000    0.2570470000000000 Gd
   0.2569070000000000    0.0666060000000000    0.5877120000000000 Gd
   0.4408150000000000    0.7397470000000000    0.9357970000000000 Gd
   0.5878490000000000    0.2569780000000000    0.0667560000000000 Gd
   0.7397570000000000    0.9356870000000000    0.4408520000000000 Gd
   0.9357750000000000    0.4409160000000000    0.7396100000000000 Gd
   0.9810160000000000    0.9808260000000000    0.9810660000000000 In
   0.4977340000000000    0.4978390000000000    0.4977340000000000 In
   0.0980590000000000    0.6856770000000000    0.9281700000000001 O
   0.0750410000000000    0.9345510000000000    0.3134240000000000 O
   0.1831850000000000    0.3939710000000000    0.5136140000000000 O
   0.3133380000000000    0.0750870000000000    0.9345760000000000 O
   0.3940170000000000    0.5135970000000000    0.1832540000000000 O
   0.4627040000000000    0.8077880000000000    0.6032160000000000 O
   0.5135970000000000    0.1831750000000000    0.3940120000000000 O
   0.6033410000000000    0.4626540000000000    0.8076870000000000 O
   0.6856920000000000    0.9282720000000000    0.0981830000000000 O
   0.8076820000000000    0.6033060000000000    0.4626640000000000 O
   0.9282370000000000    0.0980980000000000    0.6856620000000000 O
   0.9345350000000000    0.3132680000000000    0.0750450000000000 O
