Li16 P8 H24 O32
1.0
   5.1066599999999998    0.0000000000000000    0.0000000000000000
   0.0000000000000000    9.0840329999999998    0.0000000000000000
  -0.4720140000000000    0.0000000000000000   18.2113970000000016
Li P H O
16 8 24 32
direct
   0.3199740000000000    0.8544560000000000    0.9551550000000000 Li
   0.6800260000000000    0.3544560000000000    0.5448450000000000 Li
   0.6800260000000000    0.1455440000000000    0.0448450000000000 Li
   0.3199740000000000    0.6455440000000000    0.4551550000000000 Li
   0.3138930000000000    0.1796580000000000    0.8903350000000000 Li
   0.6861070000000000    0.6796580000000000    0.6096650000000000 Li
   0.6861070000000000    0.8203420000000000    0.1096650000000000 Li
   0.3138930000000000    0.3203420000000000    0.3903350000000000 Li
   0.8080710000000000    0.3432870000000000    0.9444690000000000 Li
   0.1919290000000000    0.8432870000000000    0.5555310000000000 Li
   0.1919290000000000    0.6567130000000000    0.0555310000000000 Li
   0.8080710000000000    0.1567130000000000    0.4444690000000000 Li
   0.8074600000000000    0.6700180000000000    0.9499890000000000 Li
   0.1925400000000000    0.1700180000000000    0.5500110000000000 Li
   0.1925400000000000    0.3299820000000000    0.0500110000000000 Li
   0.8074600000000000    0.8299820000000000    0.4499890000000000 Li
   0.3043940000000000    0.5119710000000000    0.9058890000000001 P
   0.6956059999999999    0.0119710000000000    0.5941109999999999 P
   0.6956059999999999    0.4880290000000000    0.0941110000000000 P
   0.3043940000000000    0.9880290000000000    0.4058890000000000 P
   0.8049420000000000    0.0021430000000000    0.8968810000000000 P
   0.1950580000000000    0.5021430000000000    0.6031190000000000 P
   0.1950580000000000    0.9978570000000000    0.1031190000000000 P
   0.8049420000000000    0.4978570000000000    0.3968810000000000 P
   0.7364730000000000    0.0120990000000000    0.8212690000000000 H
   0.2635270000000000    0.5120990000000000    0.6787310000000000 H
   0.2635270000000000    0.9879010000000000    0.1787310000000000 H
   0.7364730000000000    0.4879010000000000    0.3212690000000000 H
   0.4361700000000000    0.2567240000000000    0.7580160000000000 H
   0.5638300000000001    0.7567240000000000    0.7419840000000000 H
   0.5638300000000001    0.7432760000000000    0.2419840000000000 H
   0.4361700000000000    0.2432760000000000    0.2580160000000000 H
   0.1258470000000000    0.2564820000000000    0.7629570000000000 H
   0.8741530000000000    0.7564820000000000    0.7370430000000000 H
   0.8741530000000000    0.7435180000000000    0.2370430000000000 H
   0.1258470000000000    0.2435180000000000    0.2629570000000000 H
   0.2146660000000000    0.9117470000000000    0.7981310000000000 H
   0.7853340000000000    0.4117470000000000    0.7018690000000000 H
   0.7853340000000000    0.0882530000000000    0.2018690000000000 H
   0.2146660000000000    0.5882530000000000    0.2981310000000000 H
   0.2632850000000000    0.9342950000000000    0.7151400000000000 H
   0.7367150000000000    0.4342950000000000    0.7848600000000000 H
   0.7367150000000000    0.0657050000000000    0.2848600000000000 H
   0.2632850000000000    0.5657050000000000    0.2151400000000000 H
   0.2150170000000000    0.5278860000000000    0.8323170000000000 H
   0.7849830000000000    0.0278860000000000    0.6676830000000000 H
   0.7849830000000000    0.4721140000000000    0.1676830000000000 H
   0.2150170000000000    0.9721140000000000    0.3323170000000000 H
   0.1888980000000000    0.3660390000000000    0.9348970000000000 O
   0.8111020000000000    0.8660390000000000    0.5651030000000000 O
   0.8111020000000000    0.6339610000000000    0.0651030000000000 O
   0.1888980000000000    0.1339610000000000    0.4348970000000000 O
   0.6047930000000000    0.5079040000000000    0.9047260000000000 O
   0.3952070000000000    0.0079040000000000    0.5952740000000000 O
   0.3952070000000000    0.4920960000000000    0.0952740000000000 O
   0.6047930000000000    0.9920960000000000    0.4047260000000000 O
   0.1939300000000000    0.6466310000000000    0.9466420000000000 O
   0.8060700000000000    0.1466310000000000    0.5533580000000000 O
   0.8060700000000000    0.3533690000000000    0.0533580000000000 O
   0.1939300000000000    0.8533690000000000    0.4466420000000000 O
   0.6807140000000000    0.8615969999999999    0.9260969999999999 O
   0.3192860000000000    0.3615970000000000    0.5739030000000001 O
   0.3192860000000000    0.1384030000000000    0.0739030000000000 O
   0.6807140000000000    0.6384030000000001    0.4260970000000000 O
   0.1062930000000000    0.9993700000000000    0.9011080000000000 O
   0.8937070000000000    0.4993700000000000    0.5988920000000000 O
   0.8937070000000000    0.0006300000000000    0.0988920000000000 O
   0.1062930000000000    0.5006300000000000    0.4011080000000000 O
   0.6839340000000000    0.1421270000000000    0.9313340000000000 O
   0.3160660000000000    0.6421270000000000    0.5686660000000000 O
   0.3160660000000000    0.8578730000000000    0.0686660000000000 O
   0.6839340000000000    0.3578730000000000    0.4313340000000000 O
   0.2865520000000000    0.2057540000000000    0.7798929999999999 O
   0.7134480000000000    0.7057540000000000    0.7201070000000001 O
   0.7134480000000000    0.7942460000000000    0.2201070000000000 O
   0.2865520000000000    0.2942460000000000    0.2798930000000000 O
   0.2347950000000000    0.8573499999999999    0.7516840000000000 O
   0.7652050000000000    0.3573500000000000    0.7483160000000000 O
   0.7652050000000000    0.1426500000000000    0.2483160000000000 O
   0.2347950000000000    0.6426500000000001    0.2516840000000000 O
