Li2 Ga3 Te6 H12 O24
1.0
   9.0813530000000000   -4.6946510000000004    0.0000000000000000
   9.0813530000000000    4.6946510000000004    0.0000000000000000
   6.6544290000000004    0.0000000000000000    7.7607530000000002
Li Ga Te H O
2 3 6 12 24
direct
   0.3042360000000000    0.3042360000000000    0.3042360000000000 Li
   0.6957640000000000    0.6957640000000000    0.6957640000000000 Li
   0.1928380000000000    0.1928380000000000    0.1928380000000000 Ga
   0.8071620000000000    0.8071620000000000    0.8071620000000000 Ga
   0.0000000000000000    0.0000000000000000    0.0000000000000000 Ga
   0.0781330000000000    0.6081450000000000    0.0190480000000000 Te
   0.6081450000000000    0.0190480000000000    0.0781330000000000 Te
   0.0190480000000000    0.0781330000000000    0.6081450000000000 Te
   0.9218670000000000    0.3918550000000000    0.9809520000000000 Te
   0.3918550000000000    0.9809520000000000    0.9218670000000000 Te
   0.9809520000000000    0.9218670000000000    0.3918550000000000 Te
   0.1587930000000000    0.4394320000000000    0.5148580000000000 H
   0.4394320000000000    0.5148580000000000    0.1587930000000000 H
   0.5148580000000000    0.1587930000000000    0.4394320000000000 H
   0.8412070000000000    0.5605680000000000    0.4851420000000000 H
   0.5605680000000000    0.4851420000000000    0.8412070000000000 H
   0.4851420000000000    0.8412070000000000    0.5605680000000000 H
   0.1258770000000000    0.2743910000000000    0.6667720000000000 H
   0.2743910000000000    0.6667720000000000    0.1258770000000000 H
   0.6667720000000000    0.1258770000000000    0.2743910000000000 H
   0.8741230000000000    0.7256089999999999    0.3332280000000000 H
   0.7256089999999999    0.3332280000000000    0.8741230000000000 H
   0.3332280000000000    0.8741230000000000    0.7256089999999999 H
   0.0748380000000000    0.4152140000000000    0.2295220000000000 O
   0.4152140000000000    0.2295220000000000    0.0748380000000000 O
   0.2295220000000000    0.0748380000000000    0.4152140000000000 O
   0.9251620000000000    0.5847860000000000    0.7704780000000000 O
   0.5847860000000000    0.7704780000000000    0.9251620000000000 O
   0.7704780000000000    0.9251620000000000    0.5847860000000000 O
   0.8611380000000000    0.6643710000000000    0.0234230000000000 O
   0.6643710000000000    0.0234230000000000    0.8611380000000000 O
   0.0234230000000000    0.8611380000000000    0.6643710000000000 O
   0.1388620000000000    0.3356290000000000    0.9765770000000000 O
   0.3356290000000000    0.9765770000000000    0.1388620000000000 O
   0.9765770000000000    0.1388620000000000    0.3356290000000000 O
   0.9838220000000000    0.7695890000000000    0.1178480000000000 O
   0.7695890000000000    0.1178480000000000    0.9838220000000000 O
   0.1178480000000000    0.9838220000000000    0.7695890000000000 O
   0.0161780000000000    0.2304110000000000    0.8821520000000000 O
   0.2304110000000000    0.8821520000000000    0.0161780000000000 O
   0.8821520000000000    0.0161780000000000    0.2304110000000000 O
   0.1852490000000000    0.3215500000000000    0.5392479999999999 O
   0.3215500000000000    0.5392479999999999    0.1852490000000000 O
   0.5392479999999999    0.1852490000000000    0.3215500000000000 O
   0.8147510000000000    0.6784500000000000    0.4607520000000000 O
   0.6784500000000000    0.4607520000000000    0.8147510000000000 O
   0.4607520000000000    0.8147510000000000    0.6784500000000000 O
