pymatgen with grid density = 1331 / number of atoms
0
Gamma
4 4 3
