Li6 Zn6 Ge12 O32
1.0
   8.4003510000000006    0.0000000000000000    0.0000000000000000
   0.0000000000000000    8.3998650000000001    0.0000000000000000
   0.0000000000000000    0.0088660000000000    8.4013039999999997
Li Zn Ge O
6 6 12 32
direct
   0.3745620000000000    0.1258330000000000    0.6272380000000000 Li
   0.8745620000000000    0.8741670000000000    0.3727620000000000 Li
   0.6240550000000000    0.3763840000000000    0.1233080000000000 Li
   0.7494150000000001    0.7502720000000000    0.9991700000000000 Li
   0.2494150000000000    0.2497280000000000    0.0008300000000000 Li
   0.1240550000000000    0.6236159999999999    0.8766920000000000 Li
   0.0004700000000000    0.0003930000000000    0.7513390000000000 Zn
   0.5007440000000000    0.4998750000000000    0.7511640000000001 Zn
   0.2494840000000000    0.7499380000000000    0.5007940000000000 Zn
   0.7494840000000000    0.2500620000000000    0.4992060000000000 Zn
   0.5004700000000000    0.9996070000000000    0.2486610000000000 Zn
   0.0007440000000000    0.5001250000000000    0.2488360000000000 Zn
   0.6249479999999999    0.8794160000000000    0.6239380000000000 Ge
   0.1299640000000000    0.3737540000000000    0.6336710000000000 Ge
   0.8788300000000000    0.6287509999999999    0.6293230000000000 Ge
   0.6299640000000000    0.6262460000000000    0.3663290000000000 Ge
   0.3788300000000000    0.3712490000000000    0.3706770000000000 Ge
   0.1249480000000000    0.1205840000000000    0.3760620000000000 Ge
   0.1176830000000000    0.8725619999999999    0.1238550000000000 Ge
   0.3780370000000000    0.6183320000000000    0.1198910000000000 Ge
   0.8736370000000000    0.1207500000000000    0.1276650000000000 Ge
   0.3736370000000000    0.8792500000000000    0.8723350000000000 Ge
   0.8780370000000000    0.3816680000000000    0.8801090000000000 Ge
   0.6176830000000000    0.1274380000000000    0.8761450000000000 Ge
   0.1044130000000000    0.6063000000000000    0.6225160000000000 O
   0.6387000000000000    0.6391930000000000    0.6108730000000000 O
   0.1225450000000000    0.1424800000000000    0.6029490000000000 O
   0.6275880000000000    0.1052330000000000    0.6428580000000000 O
   0.3923350000000000    0.8725940000000000    0.6458950000000000 O
   0.8571750000000000    0.8546500000000000    0.6275240000000000 O
   0.3548440000000000    0.3774250000000000    0.6060460000000000 O
   0.8881150000000000    0.3876400000000000    0.6367530000000000 O
   0.1275880000000000    0.8947670000000000    0.3571420000000000 O
   0.3881150000000000    0.6123600000000000    0.3632470000000000 O
   0.6225450000000000    0.8575199999999999    0.3970510000000000 O
   0.8548440000000000    0.6225750000000000    0.3939540000000000 O
   0.1387000000000000    0.3608070000000000    0.3891270000000000 O
   0.3571750000000000    0.1453500000000000    0.3724760000000000 O
   0.6044130000000000    0.3937000000000000    0.3774840000000000 O
   0.8923350000000000    0.1274060000000000    0.3541050000000000 O
   0.3606720000000000    0.8611940000000000    0.1112250000000000 O
   0.8960920000000000    0.8938760000000000    0.1213310000000000 O
   0.1441730000000000    0.6471340000000000    0.1274930000000000 O
   0.6046140000000000    0.6290289999999999    0.1456560000000000 O
   0.3712540000000000    0.3970720000000000    0.1447180000000000 O
   0.8775060000000000    0.3555290000000000    0.1046150000000000 O
   0.1109280000000000    0.1104000000000000    0.1403070000000000 O
   0.6472150000000000    0.1224630000000000    0.1069990000000000 O
   0.1472150000000000    0.8775370000000000    0.8930010000000000 O
   0.6109280000000000    0.8895999999999999    0.8596930000000000 O
   0.3775060000000000    0.6444710000000000    0.8953850000000000 O
   0.8712540000000000    0.6029280000000000    0.8552820000000000 O
   0.1046140000000000    0.3709710000000000    0.8543440000000000 O
   0.6441730000000000    0.3528660000000000    0.8725070000000000 O
   0.3960920000000000    0.1061240000000000    0.8786690000000000 O
   0.8606720000000000    0.1388060000000000    0.8887750000000000 O
