pymatgen with grid density = 897 / number of atoms
0
Monkhorst
4 2 2
