Li4 S4 N4 O16
1.0
   5.5651859999999997    0.0000000000000000    0.0000000000000000
   0.0000000000000000    9.3914369999999998    0.0000000000000000
   0.0000000000000000    0.0000000000000000    9.4858060000000002
Li S N O
4 4 4 16
direct
   0.9961900000000000    0.3191900000000000    0.4010530000000000 Li
   0.4961900000000000    0.6808100000000000    0.5989470000000000 Li
   0.9961900000000000    0.8191900000000000    0.0989470000000000 Li
   0.4961900000000000    0.1808100000000000    0.9010530000000000 Li
   0.0011910000000000    0.1832360000000000    0.0821200000000000 S
   0.5011910000000001    0.8167640000000000    0.9178800000000000 S
   0.0011910000000000    0.6832360000000000    0.4178800000000000 S
   0.5011910000000001    0.3167640000000000    0.5821200000000000 S
   0.4949020000000000    0.0039990000000000    0.2937650000000000 N
   0.9949020000000000    0.9960010000000000    0.7062349999999999 N
   0.4949020000000000    0.5039990000000000    0.2062350000000000 N
   0.9949020000000000    0.4960010000000000    0.7937650000000001 N
   0.3273600000000000    0.2998550000000000    0.4642950000000000 O
   0.8273600000000000    0.7001450000000000    0.5357050000000000 O
   0.3273600000000000    0.7998550000000000    0.0357050000000000 O
   0.8273600000000000    0.2001450000000000    0.9642950000000000 O
   0.4196820000000000    0.2404120000000000    0.7086280000000000 O
   0.9196820000000000    0.7595880000000000    0.2913720000000000 O
   0.4196820000000000    0.7404120000000000    0.7913720000000000 O
   0.9196820000000000    0.2595880000000000    0.2086280000000000 O
   0.2419690000000000    0.2315260000000000    0.0378320000000000 O
   0.7419690000000000    0.7684740000000000    0.9621680000000000 O
   0.2419690000000000    0.7315260000000000    0.4621680000000000 O
   0.7419690000000000    0.2684740000000000    0.5378320000000000 O
   0.0153050000000000    0.0287670000000000    0.1190500000000000 O
   0.5153050000000000    0.9712330000000000    0.8809500000000000 O
   0.0153050000000000    0.5287670000000000    0.3809500000000000 O
   0.5153050000000000    0.4712330000000000    0.6190500000000000 O
