Li4 H16 S4 N4 O16
1.0
   5.3071830000000002    0.0000000000000000    0.0000000000000000
   0.0000000000000000    8.8874440000000003    0.0000000000000000
   0.0000000000000000    0.0000000000000000    9.3086870000000008
Li H S N O
4 16 4 4 16
direct
   0.2622460000000000    0.8210360000000000    0.4132920000000000 Li
   0.2622460000000000    0.3210360000000000    0.0867080000000000 Li
   0.7622460000000000    0.1789640000000000    0.5867080000000000 Li
   0.7622460000000000    0.6789640000000000    0.9132920000000000 Li
   0.7128160000000000    0.5962170000000000    0.3481010000000000 H
   0.9307890000000000    0.9793940000000000    0.2302370000000000 H
   0.9307890000000000    0.4793940000000000    0.2697630000000000 H
   0.7128160000000000    0.0962170000000000    0.1518990000000000 H
   0.2128160000000000    0.9037830000000000    0.8481010000000000 H
   0.1629370000000000    0.0936340000000000    0.8390640000000000 H
   0.2128160000000000    0.4037830000000000    0.6518990000000000 H
   0.6629370000000000    0.9063660000000000    0.1609360000000000 H
   0.1528160000000000    0.4875700000000000    0.8111640000000000 H
   0.1528160000000000    0.9875699999999999    0.6888360000000000 H
   0.6629370000000000    0.4063660000000000    0.3390640000000000 H
   0.6528160000000000    0.0124300000000000    0.3111640000000000 H
   0.1629370000000000    0.5936340000000000    0.6609360000000000 H
   0.6528160000000000    0.5124300000000001    0.1888360000000000 H
   0.4307890000000000    0.5206060000000000    0.7302370000000000 H
   0.4307890000000000    0.0206060000000000    0.7697630000000000 H
   0.2611620000000000    0.7057780000000000    0.0842700000000000 S
   0.7611620000000000    0.2942220000000000    0.9157300000000000 S
   0.7611620000000000    0.7942220000000000    0.5842700000000000 S
   0.2611620000000000    0.2057780000000000    0.4157300000000000 S
   0.2417690000000000    0.5007440000000000    0.7137150000000000 N
   0.7417690000000000    0.4992560000000000    0.2862850000000000 N
   0.2417690000000000    0.0007440000000000    0.7862850000000000 N
   0.7417690000000000    0.9992560000000000    0.2137150000000000 N
   0.6609470000000000    0.2240810000000000    0.7831090000000001 O
   0.2573780000000000    0.0396050000000000    0.4021420000000000 O
   0.5273350000000000    0.7571380000000000    0.0596130000000000 O
   0.6040070000000000    0.7473260000000000    0.4580530000000000 O
   0.1040070000000000    0.2526740000000000    0.5419470000000000 O
   0.0273350000000000    0.7428620000000000    0.5596130000000000 O
   0.6040070000000000    0.2473260000000000    0.0419470000000000 O
   0.1609470000000000    0.7759190000000000    0.2168910000000000 O
   0.7573780000000000    0.9603950000000000    0.5978580000000000 O
   0.7573780000000000    0.4603950000000000    0.9021420000000000 O
   0.1040070000000000    0.7526740000000000    0.9580530000000000 O
   0.0273350000000000    0.2428620000000000    0.9403870000000000 O
   0.1609470000000000    0.2759190000000000    0.2831090000000000 O
   0.6609470000000000    0.7240810000000000    0.7168909999999999 O
   0.2573780000000000    0.5396050000000000    0.0978580000000000 O
   0.5273350000000000    0.2571380000000000    0.4403870000000000 O
