pymatgen with grid density = 1311 / number of atoms
0
Gamma
3 5 3
