Li4 Sc2 P4 O16
1.0
   8.3836990000000000    0.0000000000000000    0.0000000000000000
   0.0000000000000000    4.9846959999999996    0.0000000000000000
   0.0000000000000000    3.6008540000000000    7.5335939999999999
Li Sc P O
4 2 4 16
direct
   0.8703880000000001    0.4420770000000000    0.1661640000000000 Li
   0.6296119999999999    0.4420770000000000    0.6661640000000000 Li
   0.1296120000000000    0.5579229999999999    0.8338360000000000 Li
   0.3703880000000000    0.5579229999999999    0.3338360000000000 Li
   0.5000000000000000    0.5000000000000000    0.0000000000000000 Sc
   0.0000000000000000    0.5000000000000000    0.5000000000000000 Sc
   0.6556640000000000    0.8412060000000000    0.2660290000000000 P
   0.8443360000000000    0.8412060000000000    0.7660290000000000 P
   0.3443360000000000    0.1587940000000000    0.7339710000000000 P
   0.1556640000000000    0.1587940000000000    0.2339710000000000 P
   0.6745520000000000    0.1833880000000000    0.1717570000000000 O
   0.8254480000000000    0.1833880000000000    0.6717570000000000 O
   0.3254480000000000    0.8166120000000000    0.8282430000000000 O
   0.1745520000000000    0.8166120000000000    0.3282430000000000 O
   0.8196530000000000    0.6843970000000000    0.3101480000000000 O
   0.6803470000000000    0.6843970000000000    0.8101480000000000 O
   0.1803470000000000    0.3156030000000000    0.6898520000000000 O
   0.3196530000000000    0.3156030000000000    0.1898520000000000 O
   0.5577900000000000    0.7325690000000000    0.1481400000000000 O
   0.9422100000000000    0.7325690000000000    0.6481400000000000 O
   0.4422100000000000    0.2674310000000000    0.8518600000000000 O
   0.0577900000000000    0.2674310000000000    0.3518600000000000 O
   0.5565720000000000    0.7605430000000000    0.4383820000000000 O
   0.9434280000000000    0.7605430000000000    0.9383820000000000 O
   0.4434280000000000    0.2394570000000000    0.5616180000000000 O
   0.0565720000000000    0.2394570000000000    0.0616180000000000 O
