ALGO = Fast
EDIFF = 0.0022
ENCUT = 520
IBRION = 2
ISIF = 3
ISMEAR = -5
ISPIN = 2
LASPH = True
LMAXMIX = 6
LORBIT = 11
LREAL = Auto
LWAVE = False
MAGMOM = 7*0.0 1*0.001 1*0.0 1*0.001 34*0.0
NELM = 100
NSW = 99
PREC = Accurate
SIGMA = 0.05
