Li4 U6 P4 O30
1.0
  -3.6072259999999998    3.6072259999999998   12.6904710000000005
   3.6072259999999998   -3.6072259999999998   12.6904710000000005
   3.6072259999999998    3.6072259999999998  -12.6904710000000005
Li U P O
4 6 4 30
direct
   0.3158590000000000    0.3158590000000000    0.0000000000000000 Li
   0.0658590000000000    0.5658590000000000    0.5000000000000000 Li
   0.4341410000000000    0.9341410000000000    0.5000000000000000 Li
   0.6841410000000000    0.6841410000000000    0.0000000000000000 Li
   0.0836790000000000    0.0836790000000000    0.0000000000000000 U
   0.6663210000000001    0.1663210000000000    0.5000000000000000 U
   0.9163210000000001    0.9163210000000001    0.0000000000000000 U
   0.5000000000000000    0.5000000000000000    0.0000000000000000 U
   0.8336789999999999    0.3336790000000000    0.5000000000000000 U
   0.2500000000000000    0.7500000000000000    0.5000000000000000 U
   0.7883050000000000    0.7883050000000000    0.0000000000000000 P
   0.5383050000000000    0.0383050000000000    0.5000000000000000 P
   0.9616950000000000    0.4616950000000000    0.5000000000000000 P
   0.2116950000000000    0.2116950000000000    0.0000000000000000 P
   0.6627520000000000    0.4153140000000000    0.7525610000000000 O
   0.0000000000000000    0.0000000000000000    0.0000000000000000 O
   0.2485420000000000    0.0767330000000000    0.8281910000000000 O
   0.8268300000000000    0.6589340000000000    0.8321040000000000 O
   0.0872480000000000    0.8346860000000000    0.7474390000000000 O
   0.2485420000000000    0.4203510000000000    0.1718090000000000 O
   0.1703510000000000    0.4985420000000000    0.6718090000000000 O
   0.0898090000000000    0.3372480000000000    0.7525610000000000 O
   0.7447260000000000    0.0768300000000000    0.6678960000000000 O
   0.4089340000000000    0.0768300000000000    0.3321040000000000 O
   0.0872480000000000    0.3398090000000000    0.2525610000000000 O
   0.5846860000000000    0.3372480000000000    0.2474390000000000 O
   0.9231700000000000    0.2552740000000000    0.3321040000000000 O
   0.8267330000000001    0.4985420000000000    0.3281910000000000 O
   0.6627520000000000    0.9101910000000000    0.2474390000000000 O
   0.3208880000000000    0.8208880000000000    0.5000000000000000 O
   0.6601910000000000    0.9127520000000000    0.7474390000000000 O
   0.4291120000000000    0.4291120000000000    0.0000000000000000 O
   0.0052740000000000    0.1731700000000000    0.8321040000000000 O
   0.9232669999999999    0.7514580000000000    0.1718090000000000 O
   0.9231700000000000    0.5910660000000000    0.6678960000000000 O
   0.3410660000000000    0.1731700000000000    0.1678960000000000 O
   0.5014580000000000    0.1732670000000000    0.6718090000000000 O
   0.1791120000000000    0.6791120000000000    0.5000000000000000 O
   0.8268300000000000    0.9947260000000000    0.1678960000000000 O
   0.5708880000000000    0.5708880000000000    0.0000000000000000 O
   0.1653140000000000    0.9127520000000000    0.2525610000000000 O
   0.5796490000000000    0.7514580000000000    0.8281910000000000 O
   0.5014580000000000    0.8296490000000000    0.3281910000000000 O
   0.7500000000000000    0.2500000000000000    0.5000000000000000 O
