ALGO = Fast
EDIFF = 0.0014500000000000001
ENCUT = 520
IBRION = 2
ISIF = 3
ISMEAR = -5
ISPIN = 2
LASPH = True
LMAXMIX = 4
LORBIT = 11
LREAL = Auto
LWAVE = False
MAGMOM = 1*0.001 2*-0.0 1*0.001 1*0.385 1*0.002 1*0.004 1*0.007 1*0.006 1*0.004 3*-0.0 1*0.01 1*0.061 1*0.087 1*-0.0 1*0.053 1*0.012 1*0.009 1*0.004 1*0.003 2*0.012 1*0.055 1*-0.0 1*0.095 1*0.068 1*0.009
NELM = 100
NSW = 99
PREC = Accurate
SIGMA = 0.05
