Ba2 Li1 Zn2 S2 O2
1.0
   4.1317930000000000    0.0289870000000000   -1.2718140000000000
   0.1051030000000000    6.8433609999999998    0.2053150000000000
  -0.2786260000000000    0.2160610000000000    6.4254670000000003
Ba Li Zn S O
2 1 2 2 2
direct
   0.5859560000000000    0.2178020000000000    0.1801360000000000 Ba
   0.4294640000000000    0.7372170000000000    0.8212820000000000 Ba
   0.1442030000000000    0.5074920000000001    0.3061930000000000 Li
   0.1366070000000000    0.8629610000000000    0.2703710000000000 Zn
   0.8891480000000000    0.2408300000000000    0.7830970000000000 Zn
   0.6873350000000000    0.7166570000000000    0.3740820000000000 S
   0.2973660000000000    0.2421200000000000    0.5996070000000000 S
   0.9933110000000001    0.4323400000000000    0.0131520000000000 O
   0.9866090000000000    0.9800810000000000    0.9668960000000000 O
