Li6 Bi6 P8 O32
1.0
   5.4215920000000004    0.0000000000000000    0.0000000000000000
   0.0000000000000000    9.1806219999999996    0.0000000000000000
   0.0000000000000000    8.5520549999999993   14.8324879999999997
Li Bi P O
6 6 8 32
direct
   0.5000000000000000    0.5000000000000000    0.0000000000000000 Li
   0.4241900000000000    0.3828090000000000    0.2859840000000000 Li
   0.9241900000000000    0.6171910000000000    0.2140160000000000 Li
   0.0758100000000000    0.3828090000000000    0.7859840000000000 Li
   0.0000000000000000    0.5000000000000000    0.5000000000000000 Li
   0.5758100000000000    0.6171910000000000    0.7140160000000000 Li
   0.5388579999999999    0.0965450000000000    0.1331330000000000 Bi
   0.0000000000000000    0.0000000000000000    0.0000000000000000 Bi
   0.0388580000000000    0.9034550000000000    0.3668670000000000 Bi
   0.5000000000000000    0.0000000000000000    0.5000000000000000 Bi
   0.9611420000000001    0.0965450000000000    0.6331329999999999 Bi
   0.4611420000000000    0.9034550000000000    0.8668670000000001 Bi
   0.0334910000000000    0.2348480000000000    0.1355140000000000 P
   0.5334910000000000    0.7651520000000001    0.3644860000000000 P
   0.4611490000000000    0.7297510000000000    0.1093930000000000 P
   0.9611490000000000    0.2702490000000000    0.3906070000000000 P
   0.0388510000000000    0.7297510000000000    0.6093930000000000 P
   0.5388510000000000    0.2702490000000000    0.8906070000000000 P
   0.4665090000000000    0.2348480000000000    0.6355140000000000 P
   0.9665090000000000    0.7651520000000001    0.8644860000000000 P
   0.9669200000000000    0.1070270000000000    0.0996820000000000 O
   0.6739240000000000    0.8776410000000000    0.2726350000000000 O
   0.2114240000000000    0.3693840000000000    0.0744490000000000 O
   0.7709490000000000    0.2868280000000000    0.1494760000000000 O
   0.4561890000000000    0.7083040000000000    0.0252460000000000 O
   0.2709490000000000    0.7131720000000000    0.3505240000000000 O
   0.7114239999999999    0.6306160000000000    0.4255510000000000 O
   0.1739240000000000    0.1223590000000000    0.2273650000000000 O
   0.1943640000000000    0.7722570000000000    0.1284180000000000 O
   0.4669200000000000    0.8929730000000000    0.4003180000000000 O
   0.6284230000000000    0.8911040000000000    0.0850330000000000 O
   0.5734800000000000    0.5815140000000000    0.1924870000000000 O
   0.0438110000000000    0.7083040000000000    0.5252460000000000 O
   0.0734800000000000    0.4184860000000000    0.3075130000000000 O
   0.1284230000000000    0.1088960000000000    0.4149670000000000 O
   0.6943640000000000    0.2277430000000000    0.3715820000000000 O
   0.3056360000000000    0.7722570000000000    0.6284180000000000 O
   0.8715770000000000    0.8911040000000000    0.5850330000000000 O
   0.9265200000000000    0.5815140000000000    0.6924870000000000 O
   0.9561890000000000    0.2916960000000000    0.4747540000000000 O
   0.4265200000000000    0.4184860000000000    0.8075130000000000 O
   0.3715770000000000    0.1088960000000000    0.9149670000000000 O
   0.5330800000000000    0.1070270000000000    0.5996820000000000 O
   0.8056360000000000    0.2277430000000000    0.8715820000000000 O
   0.8260760000000000    0.8776410000000000    0.7726350000000000 O
   0.2885760000000000    0.3693840000000000    0.5744490000000000 O
   0.7290510000000000    0.2868280000000000    0.6494760000000001 O
   0.5438110000000000    0.2916960000000000    0.9747540000000000 O
   0.2290510000000000    0.7131720000000000    0.8505239999999999 O
   0.7885760000000001    0.6306160000000000    0.9255510000000000 O
   0.3260760000000000    0.1223590000000000    0.7273650000000000 O
   0.0330800000000000    0.8929730000000000    0.9003180000000000 O
