Li2 H12 I2 O14
1.0
   5.7339529999999996    0.0314470000000000   -0.5571380000000000
  -2.5954350000000002    5.1254330000000001   -1.2276410000000000
   0.1284970000000000   -0.1013220000000000    9.7813960000000009
Li H I O
2 12 2 14
direct
   0.2491030000000000    0.2645490000000000    0.9915119999999999 Li
   0.7508970000000000    0.7354510000000000    0.0084880000000000 Li
   0.8042620000000000    0.4589440000000000    0.7324160000000000 H
   0.1957380000000000    0.5410560000000000    0.2675840000000000 H
   0.2809340000000000    0.9408850000000000    0.7291730000000000 H
   0.7190660000000000    0.0591150000000000    0.2708270000000000 H
   0.3686610000000000    0.5928930000000000    0.5871310000000000 H
   0.6313390000000000    0.4071070000000000    0.4128690000000000 H
   0.9463310000000000    0.1958900000000000    0.5667840000000000 H
   0.0536690000000000    0.8041100000000000    0.4332160000000000 H
   0.7074140000000000    0.2685950000000000    0.9834260000000000 H
   0.2925860000000000    0.7314050000000000    0.0165740000000000 H
   0.6815530000000000    0.3670440000000000    0.1421000000000000 H
   0.3184470000000000    0.6329560000000000    0.8579000000000000 H
   0.8279850000000000    0.8911240000000000    0.7170560000000000 I
   0.1720150000000000    0.1088760000000000    0.2829440000000000 I
   0.2079510000000000    0.0601740000000000    0.7739040000000000 O
   0.7920490000000000    0.9398260000000001    0.2260960000000000 O
   0.6457550000000000    0.3810880000000000    0.0458690000000000 O
   0.3542450000000000    0.6189120000000000    0.9541310000000000 O
   0.4433890000000000    0.7439880000000000    0.6766570000000000 O
   0.5566110000000000    0.2560120000000000    0.3233430000000000 O
   0.8295760000000000    0.0667450000000000    0.8962700000000000 O
   0.1704240000000000    0.9332549999999999    0.1037300000000000 O
   0.8445540000000000    0.1829140000000000    0.6461230000000000 O
   0.1554460000000000    0.8170860000000000    0.3538770000000000 O
   0.8331820000000000    0.7032630000000000    0.5411210000000000 O
   0.1668180000000000    0.2967370000000000    0.4588790000000000 O
   0.8046250000000000    0.6125710000000000    0.8017790000000000 O
   0.1953750000000000    0.3874290000000000    0.1982210000000000 O
