ALGO = Fast
EDIFF = 0.0006500000000000001
ENCUT = 520
IBRION = 2
ISIF = 3
ISMEAR = -5
ISPIN = 2
LASPH = True
LMAXMIX = 6
LORBIT = 11
LREAL = Auto
LWAVE = False
MAGMOM = 1*0.009 1*0.022 1*0.015 1*0.55 1*0.373 1*-0.01 1*-0.008 2*-0.01 1*-0.009 1*-0.008 1*-0.01 1*-0.009
NELM = 100
NSW = 99
PREC = Accurate
SIGMA = 0.05
