pymatgen with grid density = 1388 / number of atoms
0
Gamma
5 4 2
