Li12 Tb12 Te8 O48
1.0
  -6.2266890000000004    6.2266890000000004    6.2266890000000004
   6.2266890000000004   -6.2266890000000004    6.2266890000000004
   6.2266890000000004    6.2266890000000004   -6.2266890000000004
Li Tb Te O
12 12 8 48
direct
   0.2500000000000000    0.6250000000000000    0.3750000000000000 Li
   0.7500000000000000    0.3750000000000000    0.6250000000000000 Li
   0.7500000000000000    0.8750000000000000    0.1250000000000000 Li
   0.3750000000000000    0.2500000000000000    0.6250000000000000 Li
   0.6250000000000000    0.7500000000000000    0.3750000000000000 Li
   0.2500000000000000    0.1250000000000000    0.8750000000000000 Li
   0.1250000000000000    0.7500000000000000    0.8750000000000000 Li
   0.8750000000000000    0.2500000000000000    0.1250000000000000 Li
   0.6250000000000000    0.3750000000000000    0.2500000000000000 Li
   0.3750000000000000    0.6250000000000000    0.7500000000000000 Li
   0.8750000000000000    0.1250000000000000    0.7500000000000000 Li
   0.1250000000000000    0.8750000000000000    0.2500000000000000 Li
   0.2500000000000000    0.3750000000000000    0.1250000000000000 Tb
   0.7500000000000000    0.6250000000000000    0.8750000000000000 Tb
   0.7500000000000000    0.1250000000000000    0.3750000000000000 Tb
   0.1250000000000000    0.2500000000000000    0.3750000000000000 Tb
   0.3750000000000000    0.7500000000000000    0.1250000000000000 Tb
   0.2500000000000000    0.8750000000000000    0.6250000000000000 Tb
   0.8750000000000000    0.7500000000000000    0.6250000000000000 Tb
   0.6250000000000000    0.2500000000000000    0.8750000000000000 Tb
   0.3750000000000000    0.1250000000000000    0.2500000000000000 Tb
   0.6250000000000000    0.8750000000000000    0.7500000000000000 Tb
   0.1250000000000000    0.3750000000000000    0.7500000000000000 Tb
   0.8750000000000000    0.6250000000000000    0.2500000000000000 Tb
   0.0000000000000000    0.0000000000000000    0.0000000000000000 Te
   0.5000000000000000    0.0000000000000000    0.5000000000000000 Te
   0.0000000000000000    0.5000000000000000    0.5000000000000000 Te
   0.5000000000000000    0.0000000000000000    0.0000000000000000 Te
   0.5000000000000000    0.5000000000000000    0.0000000000000000 Te
   0.5000000000000000    0.5000000000000000    0.5000000000000000 Te
   0.0000000000000000    0.0000000000000000    0.5000000000000000 Te
   0.0000000000000000    0.5000000000000000    0.0000000000000000 Te
   0.4729440000000000    0.3797830000000000    0.3012690000000000 O
   0.5270560000000000    0.6202170000000000    0.6987310000000000 O
   0.5785150000000000    0.1716760000000000    0.1987310000000000 O
   0.9214850000000000    0.1202170000000000    0.5931610000000000 O
   0.3012690000000000    0.4729440000000000    0.3797830000000000 O
   0.3283240000000000    0.9214850000000000    0.3012690000000000 O
   0.4214850000000000    0.8283239999999999    0.8012690000000000 O
   0.0785150000000000    0.8797830000000000    0.4068390000000000 O
   0.6987310000000000    0.5270560000000000    0.6202170000000000 O
   0.6716760000000001    0.0785150000000000    0.6987310000000000 O
   0.0270560000000000    0.3283240000000000    0.9068390000000000 O
   0.1987310000000000    0.5785150000000000    0.1716760000000000 O
   0.1202170000000000    0.0270560000000000    0.1987310000000000 O
   0.9729440000000000    0.6716760000000001    0.0931610000000000 O
   0.8012690000000000    0.4214850000000000    0.8283239999999999 O
   0.8797830000000000    0.9729440000000000    0.8012690000000000 O
   0.5931610000000000    0.9214850000000000    0.1202170000000000 O
   0.1716760000000000    0.4729440000000000    0.5931610000000000 O
   0.4068390000000000    0.0785150000000000    0.8797830000000000 O
   0.8283239999999999    0.5270560000000000    0.4068390000000000 O
   0.9068390000000000    0.0270560000000000    0.3283240000000000 O
   0.3797830000000000    0.5785150000000000    0.9068390000000000 O
   0.0931610000000000    0.9729440000000000    0.6716760000000001 O
   0.6202170000000000    0.4214850000000000    0.0931610000000000 O
   0.3797830000000000    0.3012690000000000    0.4729440000000000 O
   0.5785150000000000    0.9068390000000000    0.3797830000000000 O
   0.6202170000000000    0.6987310000000000    0.5270560000000000 O
   0.4214850000000000    0.0931610000000000    0.6202170000000000 O
   0.1202170000000000    0.5931610000000000    0.9214850000000000 O
   0.0270560000000000    0.1987310000000000    0.1202170000000000 O
   0.8797830000000000    0.4068390000000000    0.0785150000000000 O
   0.9729440000000000    0.8012690000000000    0.8797830000000000 O
   0.3283240000000000    0.9068390000000000    0.0270560000000000 O
   0.9214850000000000    0.3012690000000000    0.3283240000000000 O
   0.6716760000000001    0.0931610000000000    0.9729440000000000 O
   0.0785150000000000    0.6987310000000000    0.6716760000000001 O
   0.1716760000000000    0.1987310000000000    0.5785150000000000 O
   0.4729440000000000    0.5931610000000000    0.1716760000000000 O
   0.8283239999999999    0.8012690000000000    0.4214850000000000 O
   0.5270560000000000    0.4068390000000000    0.8283239999999999 O
   0.3012690000000000    0.3283240000000000    0.9214850000000000 O
   0.6987310000000000    0.6716760000000001    0.0785150000000000 O
   0.1987310000000000    0.1202170000000000    0.0270560000000000 O
   0.8012690000000000    0.8797830000000000    0.9729440000000000 O
   0.9068390000000000    0.3797830000000000    0.5785150000000000 O
   0.0931610000000000    0.6202170000000000    0.4214850000000000 O
   0.5931610000000000    0.1716760000000000    0.4729440000000000 O
   0.4068390000000000    0.8283239999999999    0.5270560000000000 O
