pymatgen with grid density = 1110 / number of atoms
0
Gamma
3 3 3
