Li2 Bi8 B6 O22
1.0
   4.5724440000000000    4.6658960000000000    0.0000000000000000
  -4.5724440000000000    4.6658960000000000    0.0000000000000000
   0.0000000000000000    2.0897009999999998   12.2260349999999995
Li Bi B O
2 8 6 22
direct
   0.1121180000000000    0.8878819999999999    0.7500000000000000 Li
   0.8878819999999999    0.1121180000000000    0.2500000000000000 Li
   0.6007760000000000    0.9201250000000000    0.8324190000000000 Bi
   0.9201250000000000    0.6007760000000000    0.3324190000000000 Bi
   0.8260459999999999    0.3996480000000000    0.9212600000000000 Bi
   0.3996480000000000    0.8260459999999999    0.4212600000000000 Bi
   0.6003520000000000    0.1739540000000000    0.5787400000000000 Bi
   0.1739540000000000    0.6003520000000000    0.0787400000000000 Bi
   0.0798750000000000    0.3992240000000000    0.6675810000000000 Bi
   0.3992240000000000    0.0798750000000000    0.1675810000000000 Bi
   0.8616350000000000    0.8269150000000000    0.5737750000000000 B
   0.8269150000000000    0.8616350000000000    0.0737750000000000 B
   0.5320640000000000    0.4679360000000000    0.7500000000000000 B
   0.4679360000000000    0.5320640000000000    0.2500000000000000 B
   0.1730850000000000    0.1383650000000000    0.9262250000000000 B
   0.1383650000000000    0.1730850000000000    0.4262250000000000 B
   0.8628960000000000    0.9536920000000000    0.6559370000000000 O
   0.9536920000000000    0.8628960000000000    0.1559370000000000 O
   0.7038320000000000    0.8672420000000000    0.5064360000000000 O
   0.8672420000000000    0.7038320000000000    0.0064360000000000 O
   0.4087880000000000    0.9933740000000000    0.7054460000000000 O
   0.3200240000000000    0.9893920000000000    0.9479710000000000 O
   0.9933740000000000    0.4087880000000000    0.2054460000000000 O
   0.9893920000000000    0.3200240000000000    0.4479710000000000 O
   0.5184080000000000    0.5871220000000000    0.8353739999999999 O
   0.6866020000000000    0.3133980000000000    0.7500000000000000 O
   0.5871220000000000    0.5184080000000000    0.3353740000000000 O
   0.4128780000000000    0.4815920000000000    0.6646260000000001 O
   0.3133980000000000    0.6866020000000000    0.2500000000000000 O
   0.4815920000000000    0.4128780000000000    0.1646260000000000 O
   0.0106080000000000    0.6799760000000000    0.5520290000000000 O
   0.0066260000000000    0.5912120000000000    0.7945540000000000 O
   0.6799760000000000    0.0106080000000000    0.0520290000000000 O
   0.5912120000000000    0.0066260000000000    0.2945540000000000 O
   0.1327580000000000    0.2961680000000000    0.9935640000000000 O
   0.2961680000000000    0.1327580000000000    0.4935640000000000 O
   0.0463080000000000    0.1371040000000000    0.8440630000000000 O
   0.1371040000000000    0.0463080000000000    0.3440630000000000 O
