pymatgen with grid density = 1383 / number of atoms
0
Monkhorst
2 2 2
