Li2 La2 Nd2 Sb2 O12
1.0
   5.6150390000000003    0.0000000000000000    0.0000000000000000
   0.0390590000000000    5.7931480000000004    0.0000000000000000
   0.0486010000000000    0.0026610000000000    8.0443519999999999
Li La Nd Sb O
2 2 2 2 12
direct
   0.0000000000000000    0.5000000000000000    0.0000000000000000 Li
   0.5000000000000000    0.0000000000000000    0.5000000000000000 Li
   0.9854680000000000    0.0512490000000000    0.2487000000000000 La
   0.0145320000000000    0.9487510000000000    0.7513000000000000 La
   0.5154190000000000    0.5547080000000000    0.2509960000000000 Nd
   0.4845810000000000    0.4452920000000000    0.7490040000000000 Nd
   0.0000000000000000    0.5000000000000000    0.5000000000000000 Sb
   0.5000000000000000    0.0000000000000000    0.0000000000000000 Sb
   0.1060560000000000    0.4696490000000000    0.2618340000000000 O
   0.2125780000000000    0.1954090000000000    0.9514540000000000 O
   0.1926910000000000    0.2158440000000000    0.5563590000000000 O
   0.3137880000000000    0.7142890000000000    0.9426560000000000 O
   0.2859600000000000    0.6913210000000000    0.5531790000000000 O
   0.4030740000000000    0.9605990000000000    0.2389590000000000 O
   0.5969260000000000    0.0394010000000000    0.7610410000000000 O
   0.7140400000000000    0.3086790000000000    0.4468210000000000 O
   0.6862120000000000    0.2857110000000000    0.0573440000000000 O
   0.8073090000000001    0.7841560000000000    0.4436410000000000 O
   0.7874220000000000    0.8045909999999999    0.0485460000000000 O
   0.8939440000000000    0.5303510000000000    0.7381660000000000 O
