pymatgen with grid density = 1571 / number of atoms
0
Gamma
2 5 2
