Na8 Li16 B8 O24
1.0
  12.1800759999999997    0.0000000000000000    0.0000000000000000
   0.0000000000000000    4.9781350000000000    0.0000000000000000
   0.0000000000000000    2.6311030000000000    9.3300579999999993
Na Li B O
8 16 8 24
direct
   0.8851670000000000    0.6547230000000001    0.6033520000000000 Na
   0.1979870000000000    0.9736010000000000    0.8240780000000000 Na
   0.6979870000000000    0.0263990000000000    0.6759220000000000 Na
   0.6148330000000000    0.6547230000000001    0.1033520000000000 Na
   0.8020130000000000    0.0263990000000000    0.1759220000000000 Na
   0.3851670000000000    0.3452770000000000    0.8966480000000000 Na
   0.1148330000000000    0.3452770000000000    0.3966480000000000 Na
   0.3020130000000000    0.9736010000000000    0.3240780000000000 Na
   0.0038110000000000    0.2405880000000000    0.0206990000000000 Li
   0.3470390000000000    0.7717800000000000    0.6443990000000001 Li
   0.6487820000000000    0.1875730000000000    0.9405440000000000 Li
   0.1487820000000000    0.8124270000000000    0.5594560000000000 Li
   0.1023350000000000    0.4772110000000000    0.7978010000000000 Li
   0.6023350000000000    0.5227889999999999    0.7021990000000000 Li
   0.4961890000000000    0.2405880000000000    0.5206990000000000 Li
   0.9961890000000000    0.7594120000000000    0.9793010000000000 Li
   0.8470390000000000    0.2282200000000000    0.8556009999999999 Li
   0.8976650000000000    0.5227889999999999    0.2021990000000000 Li
   0.1529610000000000    0.7717800000000000    0.1443990000000000 Li
   0.8512180000000000    0.1875730000000000    0.4405440000000000 Li
   0.3976650000000000    0.4772110000000000    0.2978010000000000 Li
   0.6529610000000000    0.2282200000000000    0.3556010000000000 Li
   0.5038110000000000    0.7594120000000000    0.4793010000000000 Li
   0.3512180000000000    0.8124270000000000    0.0594560000000000 Li
   0.7885210000000000    0.6405350000000000    0.9236670000000000 B
   0.2885210000000000    0.3594650000000000    0.5763330000000000 B
   0.7114790000000000    0.6405350000000000    0.4236670000000000 B
   0.5218350000000000    0.0474410000000000    0.2192950000000000 B
   0.9781650000000000    0.0474410000000000    0.7192950000000000 B
   0.0218350000000000    0.9525590000000000    0.2807050000000000 B
   0.2114790000000000    0.3594650000000000    0.0763330000000000 B
   0.4781650000000000    0.9525590000000000    0.7807050000000000 B
   0.4925120000000000    0.1379540000000000    0.3400120000000000 O
   0.3881420000000000    0.8284640000000000    0.8612620000000000 O
   0.7661040000000000    0.5348730000000000    0.3222010000000000 O
   0.2408210000000000    0.1064230000000000    0.0528630000000000 O
   0.1267250000000000    0.5211240000000000    0.9969570000000000 O
   0.9925119999999999    0.8620460000000000    0.1599880000000000 O
   0.5355100000000000    0.1726070000000000    0.8075580000000000 O
   0.5074880000000001    0.8620460000000000    0.6599880000000000 O
   0.7338960000000000    0.5348730000000000    0.8222010000000000 O
   0.9644900000000000    0.1726070000000000    0.3075580000000000 O
   0.2661040000000000    0.4651270000000000    0.1777990000000000 O
   0.8732750000000000    0.4788760000000000    0.0030430000000000 O
   0.3732750000000000    0.5211240000000000    0.4969570000000000 O
   0.7408210000000000    0.8935770000000000    0.4471370000000000 O
   0.2338960000000000    0.4651270000000000    0.6777990000000000 O
   0.1118580000000000    0.8284640000000000    0.3612620000000000 O
   0.0074880000000000    0.1379540000000000    0.8400120000000000 O
   0.2591790000000000    0.1064230000000000    0.5528630000000000 O
   0.6267250000000000    0.4788760000000000    0.5030430000000000 O
   0.8881420000000000    0.1715360000000000    0.6387380000000000 O
   0.0355100000000000    0.8273930000000000    0.6924420000000000 O
   0.6118580000000000    0.1715360000000000    0.1387380000000000 O
   0.7591790000000000    0.8935770000000000    0.9471370000000000 O
   0.4644900000000000    0.8273930000000000    0.1924420000000000 O
