Li12 Y12 Te8 O48
1.0
  -6.2156148299999998   -6.2156148299999998    6.2156148299999998
  -6.2156148299999998    6.2156148299999998   -6.2156148299999998
   6.2156148299999998   -6.2156148299999998   -6.2156148299999998
Li Y Te O
12 12 8 48
direct
   0.6250000000000000    0.3750000000000000    0.7500000000000000 Li
   0.3750000000000000    0.6250000000000000    0.2500000000000000 Li
   0.8750000000000000    0.1250000000000000    0.2500000000000000 Li
   0.3750000000000000    0.7500000000000000    0.6250000000000000 Li
   0.6250000000000000    0.2500000000000000    0.3750000000000000 Li
   0.1250000000000000    0.8750000000000000    0.7500000000000000 Li
   0.1250000000000000    0.2500000000000000    0.8750000000000000 Li
   0.8750000000000000    0.7500000000000000    0.1250000000000000 Li
   0.7500000000000000    0.6250000000000000    0.3750000000000000 Li
   0.2500000000000000    0.3750000000000000    0.6250000000000000 Li
   0.2500000000000000    0.8750000000000000    0.1250000000000000 Li
   0.7500000000000000    0.1250000000000000    0.8750000000000000 Li
   0.8750000000000000    0.6250000000000000    0.7500000000000000 Y
   0.1250000000000000    0.3750000000000000    0.2500000000000000 Y
   0.6250000000000000    0.8750000000000000    0.2500000000000000 Y
   0.6250000000000000    0.7500000000000000    0.8750000000000000 Y
   0.8750000000000000    0.2500000000000000    0.6250000000000000 Y
   0.3750000000000000    0.1250000000000000    0.7500000000000000 Y
   0.3750000000000000    0.2500000000000000    0.1250000000000000 Y
   0.1250000000000000    0.7500000000000000    0.3750000000000000 Y
   0.7500000000000000    0.8750000000000000    0.6250000000000000 Y
   0.2500000000000000    0.1250000000000000    0.3750000000000000 Y
   0.2500000000000000    0.6250000000000000    0.8750000000000000 Y
   0.7500000000000000    0.3750000000000000    0.1250000000000000 Y
   0.0000000000000000    0.0000000000000000    0.0000000000000000 Te
   0.5000000000000000    0.0000000000000000    0.5000000000000000 Te
   0.5000000000000000    0.5000000000000000    0.0000000000000000 Te
   0.0000000000000000    0.0000000000000000    0.5000000000000000 Te
   0.0000000000000000    0.5000000000000000    0.5000000000000000 Te
   0.5000000000000000    0.5000000000000000    0.5000000000000000 Te
   0.5000000000000000    0.0000000000000000    0.0000000000000000 Te
   0.0000000000000000    0.5000000000000000    0.0000000000000000 Te
   0.6989247800000000    0.6200422600000000    0.5272268900000000 O
   0.3010752200000000    0.3799577400000000    0.4727731100000000 O
   0.8010752200000000    0.8283021000000000    0.4211174800000000 O
   0.4071846300000000    0.8799577400000000    0.0788825200000000 O
   0.6200422600000000    0.5272268900000000    0.6989247800000000 O
   0.6989247800000000    0.0788825200000000    0.6716979000000000 O
   0.1989247800000000    0.1716979000000000    0.5788825200000000 O
   0.5928153700000000    0.1200422600000000    0.9211174800000000 O
   0.3799577400000000    0.4727731100000000    0.3010752200000000 O
   0.3010752200000000    0.9211174800000000    0.3283021000000000 O
   0.0928153700000000    0.6716979000000000    0.9727731100000000 O
   0.8283021000000000    0.4211174800000000    0.8010752200000000 O
   0.8010752200000000    0.9727731100000000    0.8799577400000000 O
   0.9071846300000000    0.3283021000000000    0.0272268900000000 O
   0.1716979000000000    0.5788825200000000    0.1989247800000000 O
   0.1989247800000000    0.0272268900000000    0.1200422600000000 O
   0.8799577400000000    0.0788825200000000    0.4071846300000000 O
   0.4071846300000000    0.5272268900000000    0.8283021000000000 O
   0.1200422600000000    0.9211174800000000    0.5928153700000000 O
   0.5928153700000000    0.4727731100000000    0.1716979000000000 O
   0.6716979000000000    0.9727731100000000    0.0928153700000000 O
   0.0928153700000000    0.4211174800000000    0.6200422600000000 O
   0.3283021000000000    0.0272268900000000    0.9071846300000000 O
   0.9071846300000000    0.5788825200000000    0.3799577400000000 O
   0.5272268900000000    0.6989247800000000    0.6200422600000000 O
   0.6200422600000000    0.0928153700000000    0.4211174800000000 O
   0.4727731100000000    0.3010752200000000    0.3799577400000000 O
   0.3799577400000000    0.9071846300000000    0.5788825200000000 O
   0.0788825200000000    0.4071846300000000    0.8799577400000000 O
   0.8799577400000000    0.8010752200000000    0.9727731100000000 O
   0.9211174800000000    0.5928153700000000    0.1200422600000000 O
   0.1200422600000000    0.1989247800000000    0.0272268900000000 O
   0.9727731100000000    0.0928153700000000    0.6716979000000000 O
   0.6716979000000000    0.6989247800000000    0.0788825200000000 O
   0.0272268900000000    0.9071846300000000    0.3283021000000000 O
   0.3283021000000000    0.3010752200000000    0.9211174800000000 O
   0.4211174800000000    0.8010752200000000    0.8283021000000000 O
   0.8283021000000000    0.4071846300000000    0.5272268900000000 O
   0.5788825200000000    0.1989247800000000    0.1716979000000000 O
   0.1716979000000000    0.5928153700000000    0.4727731100000000 O
   0.0788825200000000    0.6716979000000000    0.6989247800000000 O
   0.9211174800000000    0.3283021000000000    0.3010752200000000 O
   0.9727731100000000    0.8799577400000000    0.8010752200000000 O
   0.0272268900000000    0.1200422600000000    0.1989247800000000 O
   0.4211174800000000    0.6200422600000000    0.0928153700000000 O
   0.5788825200000000    0.3799577400000000    0.9071846300000000 O
   0.5272268900000000    0.8283021000000000    0.4071846300000000 O
   0.4727731100000000    0.1716979000000000    0.5928153700000000 O
