Li16 Sn16 S24 O96
1.0
   9.2090990000000001    0.0000000000000000    0.0000000000000000
   0.0000000000000000    9.3644060000000007    0.0000000000000000
   0.0000000000000000    0.0000000000000000   26.6144999999999996
Li Sn S O
16 16 24 96
direct
   0.0449000000000000    0.6208780000000000    0.2894070000000000 Li
   0.0449000000000000    0.8791220000000000    0.7894070000000000 Li
   0.1277710000000000    0.9256170000000000    0.0121580000000000 Li
   0.1277710000000000    0.5743830000000000    0.5121580000000000 Li
   0.3722290000000000    0.0743830000000000    0.5121580000000000 Li
   0.3722290000000000    0.4256170000000000    0.0121580000000000 Li
   0.4551000000000000    0.1208780000000000    0.2894070000000000 Li
   0.4551000000000000    0.3791220000000000    0.7894070000000000 Li
   0.5449000000000001    0.6208780000000000    0.2105930000000000 Li
   0.5449000000000001    0.8791220000000000    0.7105930000000000 Li
   0.6277710000000000    0.5743830000000000    0.9878420000000000 Li
   0.6277710000000000    0.9256170000000000    0.4878420000000000 Li
   0.8722290000000000    0.4256170000000000    0.4878420000000000 Li
   0.8722290000000000    0.0743830000000000    0.9878420000000000 Li
   0.9550999999999999    0.1208780000000000    0.2105930000000000 Li
   0.9550999999999999    0.3791220000000000    0.7105930000000000 Li
   0.0000170000000000    0.4075310000000000    0.0700550000000000 Sn
   0.0000170000000000    0.0924690000000000    0.5700550000000000 Sn
   0.9974070000000000    0.7858940000000000    0.1736730000000000 Sn
   0.9974070000000000    0.7141060000000000    0.6736730000000000 Sn
   0.5025930000000000    0.2858940000000000    0.1736730000000000 Sn
   0.5025930000000000    0.2141060000000000    0.6736730000000000 Sn
   0.4999830000000000    0.5924690000000000    0.5700550000000000 Sn
   0.4999830000000000    0.9075310000000000    0.0700550000000000 Sn
   0.5000170000000000    0.4075310000000000    0.4299450000000000 Sn
   0.5000170000000000    0.0924690000000000    0.9299450000000000 Sn
   0.4974070000000000    0.7141060000000000    0.8263270000000000 Sn
   0.4974070000000000    0.7858940000000000    0.3263270000000000 Sn
   0.0025930000000000    0.2858940000000000    0.3263270000000000 Sn
   0.0025930000000000    0.2141060000000000    0.8263270000000000 Sn
   0.9999830000000000    0.9075310000000000    0.4299450000000000 Sn
   0.9999830000000000    0.5924690000000000    0.9299450000000000 Sn
   0.1478000000000000    0.9426600000000001    0.2930620000000000 S
   0.1478000000000000    0.5573399999999999    0.7930620000000000 S
   0.1542640000000000    0.2610520000000000    0.4568980000000000 S
   0.1542640000000000    0.2389480000000000    0.9568980000000000 S
   0.1753760000000000    0.0869640000000000    0.1134370000000000 S
   0.1753760000000000    0.4130360000000000    0.6134370000000000 S
   0.3246240000000000    0.5869640000000000    0.1134370000000000 S
   0.3246240000000000    0.9130360000000000    0.6134370000000000 S
   0.3457360000000000    0.7610520000000000    0.4568980000000000 S
   0.3457360000000000    0.7389480000000000    0.9568980000000000 S
   0.3522000000000000    0.4426600000000000    0.2930620000000000 S
   0.3522000000000000    0.0573400000000000    0.7930620000000000 S
   0.6478000000000000    0.5573399999999999    0.7069380000000000 S
   0.6478000000000000    0.9426600000000001    0.2069380000000000 S
   0.6542640000000000    0.2610520000000000    0.0431020000000000 S
   0.6542640000000000    0.2389480000000000    0.5431020000000000 S
   0.6753760000000000    0.0869640000000000    0.3865630000000000 S
   0.6753760000000000    0.4130360000000000    0.8865630000000000 S
   0.8246240000000000    0.5869640000000000    0.3865630000000000 S
   0.8246240000000000    0.9130360000000000    0.8865630000000000 S
   0.8457360000000000    0.7610520000000000    0.0431020000000000 S
   0.8457360000000000    0.7389480000000000    0.5431020000000000 S
   0.8522000000000000    0.4426600000000000    0.2069380000000000 S
   0.8522000000000000    0.0573400000000000    0.7069380000000000 S
   0.0837890000000000    0.3985410000000000    0.4705320000000000 O
   0.0837890000000000    0.1014590000000000    0.9705320000000000 O
   0.0720650000000000    0.0660350000000000    0.2691110000000000 O
   0.0720650000000000    0.4339650000000000    0.7691110000000000 O
   0.0813190000000000    0.1389560000000000    0.4836940000000000 O
   0.0813190000000000    0.3610440000000000    0.9836940000000000 O
   0.0980310000000000    0.9270480000000000    0.3455560000000000 O
   0.0980310000000000    0.5729520000000000    0.8455560000000000 O
   0.0820980000000000    0.1835500000000000    0.0827960000000000 O
   0.0820980000000000    0.3164500000000000    0.5827960000000000 O
   0.1154210000000000    0.8081420000000000    0.2645570000000000 O
   0.1154210000000000    0.6918580000000000    0.7645570000000000 O
   0.0855650000000000    0.0302540000000000    0.1562160000000000 O
   0.0855650000000000    0.4697460000000000    0.6562160000000000 O
   0.1468520000000000    0.2368190000000000    0.4019490000000000 O
   0.1468520000000000    0.2631810000000000    0.9019490000000000 O
   0.1919520000000000    0.4692450000000000    0.2920970000000000 O
   0.1919520000000000    0.0307550000000000    0.7920970000000001 O
   0.1962780000000000    0.6624450000000000    0.1335190000000000 O
   0.1962780000000000    0.8375550000000000    0.6335190000000001 O
   0.1901580000000000    0.7602970000000000    0.4738590000000000 O
   0.1901580000000000    0.7397030000000000    0.9738590000000000 O
   0.2776840000000000    0.0335490000000000    0.5802290000000000 O
   0.2776840000000000    0.4664510000000000    0.0802290000000000 O
   0.2223160000000000    0.5335490000000001    0.5802290000000000 O
   0.2223160000000000    0.9664509999999999    0.0802290000000000 O
   0.3098420000000000    0.2397030000000000    0.9738590000000000 O
   0.3098420000000000    0.2602970000000000    0.4738590000000000 O
   0.3037220000000000    0.1624450000000000    0.1335190000000000 O
   0.3037220000000000    0.3375550000000000    0.6335190000000001 O
   0.3080480000000000    0.9692450000000000    0.2920970000000000 O
   0.3080480000000000    0.5307550000000000    0.7920970000000001 O
   0.3531480000000000    0.7368190000000000    0.4019490000000000 O
   0.3531480000000000    0.7631810000000000    0.9019490000000000 O
   0.4144350000000000    0.9697460000000000    0.6562160000000000 O
   0.4144350000000000    0.5302540000000000    0.1562160000000000 O
   0.3845790000000000    0.3081420000000000    0.2645570000000000 O
   0.3845790000000000    0.1918580000000000    0.7645570000000000 O
   0.4179020000000000    0.6835500000000000    0.0827960000000000 O
   0.4179020000000000    0.8164500000000000    0.5827960000000000 O
   0.4019690000000000    0.0729520000000000    0.8455560000000000 O
   0.4019690000000000    0.4270480000000000    0.3455560000000000 O
   0.4186810000000000    0.8610440000000000    0.9836940000000000 O
   0.4186810000000000    0.6389560000000000    0.4836940000000000 O
   0.4279350000000000    0.5660350000000000    0.2691110000000000 O
   0.4279350000000000    0.9339650000000000    0.7691110000000000 O
   0.4162110000000000    0.6014590000000000    0.9705320000000000 O
   0.4162110000000000    0.8985410000000000    0.4705320000000000 O
   0.5837890000000000    0.3985410000000000    0.0294680000000000 O
   0.5837890000000000    0.1014590000000000    0.5294680000000000 O
   0.5720650000000000    0.0660350000000000    0.2308890000000000 O
   0.5720650000000000    0.4339650000000000    0.7308890000000000 O
   0.5813190000000000    0.1389560000000000    0.0163060000000000 O
   0.5813190000000000    0.3610440000000000    0.5163060000000000 O
   0.5980310000000000    0.5729520000000000    0.6544440000000000 O
   0.5980310000000000    0.9270480000000000    0.1544440000000000 O
   0.5820980000000000    0.1835500000000000    0.4172040000000000 O
   0.5820980000000000    0.3164500000000000    0.9172040000000000 O
   0.6154210000000000    0.8081420000000000    0.2354430000000000 O
   0.6154210000000000    0.6918580000000000    0.7354430000000000 O
   0.5855650000000000    0.0302540000000000    0.3437840000000000 O
   0.5855650000000000    0.4697460000000000    0.8437840000000000 O
   0.6468520000000000    0.2368190000000000    0.0980510000000000 O
   0.6468520000000000    0.2631810000000000    0.5980510000000000 O
   0.6919520000000000    0.4692450000000000    0.2079030000000000 O
   0.6919520000000000    0.0307550000000000    0.7079029999999999 O
   0.6962780000000000    0.6624450000000000    0.3664810000000000 O
   0.6962780000000000    0.8375550000000000    0.8664809999999999 O
   0.6901580000000000    0.7602970000000000    0.0261410000000000 O
   0.6901580000000000    0.7397030000000000    0.5261410000000000 O
   0.7776840000000000    0.4664510000000000    0.4197710000000000 O
   0.7776840000000000    0.0335490000000000    0.9197710000000000 O
   0.7223160000000000    0.9664509999999999    0.4197710000000000 O
   0.7223160000000000    0.5335490000000001    0.9197710000000000 O
   0.8098420000000000    0.2602970000000000    0.0261410000000000 O
   0.8098420000000000    0.2397030000000000    0.5261410000000000 O
   0.8037220000000000    0.1624450000000000    0.3664810000000000 O
   0.8037220000000000    0.3375550000000000    0.8664809999999999 O
   0.8080480000000000    0.5307550000000000    0.7079029999999999 O
   0.8080480000000000    0.9692450000000000    0.2079030000000000 O
   0.8531480000000000    0.7368190000000000    0.0980510000000000 O
   0.8531480000000000    0.7631810000000000    0.5980510000000000 O
   0.9144350000000000    0.5302540000000000    0.3437840000000000 O
   0.9144350000000000    0.9697460000000000    0.8437840000000000 O
   0.8845790000000000    0.3081420000000000    0.2354430000000000 O
   0.8845790000000000    0.1918580000000000    0.7354430000000000 O
   0.9179020000000000    0.6835500000000000    0.4172040000000000 O
   0.9179020000000000    0.8164500000000000    0.9172040000000000 O
   0.9019690000000000    0.4270480000000000    0.1544440000000000 O
   0.9019690000000000    0.0729520000000000    0.6544440000000000 O
   0.9186810000000000    0.6389560000000000    0.0163060000000000 O
   0.9186810000000000    0.8610440000000000    0.5163060000000000 O
   0.9279350000000000    0.5660350000000000    0.2308890000000000 O
   0.9279350000000000    0.9339650000000000    0.7308890000000000 O
   0.9162110000000000    0.6014590000000000    0.5294680000000000 O
   0.9162110000000000    0.8985410000000000    0.0294680000000000 O
