Li2 Bi4 P6 O22
1.0
   4.7404260000000003    6.3087320000000000    0.0000000000000000
  -4.7404260000000003    6.3087320000000000    0.0000000000000000
   0.0000000000000000    4.6590930000000004    8.4334270000000000
Li Bi P O
2 4 6 22
direct
   0.5139700000000000    0.9814770000000000    0.2687450000000000 Li
   0.0185230000000000    0.4860300000000000    0.7312550000000000 Li
   0.8796530000000000    0.3436520000000000    0.1945480000000000 Bi
   0.3447500000000000    0.8794250000000000    0.6967820000000000 Bi
   0.6563480000000000    0.1203470000000000    0.8054519999999999 Bi
   0.1205750000000000    0.6552500000000000    0.3032180000000000 Bi
   0.5533460000000000    0.6760000000000000    0.0187310000000000 P
   0.9490740000000000    0.0509260000000000    0.0000000000000000 P
   0.6770640000000000    0.5548270000000000    0.5147430000000000 P
   0.3240000000000000    0.4466540000000000    0.9812689999999999 P
   0.0523170000000000    0.9476830000000001    0.5000000000000000 P
   0.4451730000000000    0.3229360000000000    0.4852570000000000 P
   0.9951179999999999    0.9211110000000000    0.1507830000000000 O
   0.9215080000000000    0.9922140000000000    0.6505620000000000 O
   0.7536990000000000    0.6123220000000000    0.0164690000000000 O
   0.5311860000000000    0.8438290000000001    0.8712520000000000 O
   0.4228740000000000    0.7198830000000001    0.1716220000000000 O
   0.9606120000000000    0.2597290000000000    0.9699590000000000 O
   0.6128100000000000    0.7593110000000000    0.5042800000000000 O
   0.4915450000000000    0.5084550000000000    0.0000000000000000 O
   0.8434380000000000    0.5290580000000000    0.3678790000000000 O
   0.7207760000000000    0.4297310000000000    0.6682050000000000 O
   0.2611120000000000    0.9569920000000000    0.4737730000000000 O
   0.7402710000000000    0.0393880000000000    0.0300410000000000 O
   0.2801170000000000    0.5771260000000000    0.8283779999999999 O
   0.1561710000000000    0.4688140000000000    0.1287480000000000 O
   0.5076850000000001    0.4923150000000000    0.5000000000000000 O
   0.3876780000000000    0.2463010000000000    0.9835310000000000 O
   0.0430080000000000    0.7388880000000000    0.5262270000000000 O
   0.5702690000000000    0.2792240000000000    0.3317950000000000 O
   0.4709420000000000    0.1565620000000000    0.6321210000000000 O
   0.2406890000000000    0.3871900000000000    0.4957200000000000 O
   0.0788890000000000    0.0048820000000000    0.8492170000000000 O
   0.0077860000000000    0.0784920000000000    0.3494380000000000 O
