Li6 Sb6 P8 O32
1.0
   9.0863119999999995    0.0000000000000000    0.0000000000000000
   0.0000000000000000    7.8673890000000002    0.0000000000000000
   0.0000000000000000    0.4788190000000000   10.5057240000000007
Li Sb P O
6 6 8 32
direct
   0.6231719999999999    0.1496360000000000    0.1558300000000000 Li
   0.1231720000000000    0.8503640000000000    0.8441700000000000 Li
   0.8767550000000000    0.6232640000000000    0.4145040000000000 Li
   0.8822330000000000    0.6493130000000000    0.9063730000000000 Li
   0.3767550000000000    0.3767360000000000    0.5854960000000000 Li
   0.3822330000000000    0.3506870000000000    0.0936270000000000 Li
   0.0348910000000000    0.2684670000000000    0.6297880000000000 Sb
   0.9969830000000000    0.2648480000000000    0.1137440000000000 Sb
   0.6359690000000000    0.1263380000000000    0.6676240000000000 Sb
   0.1359690000000000    0.8736620000000000    0.3323760000000000 Sb
   0.5348910000000000    0.7315330000000000    0.3702120000000000 Sb
   0.4969830000000000    0.7351520000000000    0.8862560000000000 Sb
   0.7960100000000000    0.0335360000000000    0.3888960000000000 P
   0.8040570000000000    0.0357900000000000    0.9048470000000000 P
   0.2960100000000000    0.9664640000000000    0.6111040000000000 P
   0.3040570000000000    0.9642100000000000    0.0951530000000000 P
   0.7095580000000000    0.5465820000000000    0.6383980000000000 P
   0.6911500000000000    0.5418180000000000    0.1388720000000000 P
   0.1911500000000000    0.4581820000000000    0.8611280000000000 P
   0.2095580000000000    0.4534180000000000    0.3616020000000000 P
   0.8203830000000000    0.1758110000000000    0.7899440000000000 O
   0.8566110000000000    0.1639570000000000    0.2906790000000000 O
   0.7900320000000000    0.1245020000000000    0.5205180000000000 O
   0.3902390000000000    0.1291230000000000    0.5911180000000000 O
   0.8142860000000000    0.1301320000000000    0.0325000000000000 O
   0.4189820000000000    0.1025950000000000    0.1040140000000000 O
   0.1351130000000000    0.0170310000000000    0.6507309999999999 O
   0.6408170000000000    0.9760200000000000    0.8878080000000000 O
   0.1408170000000000    0.0239800000000000    0.1121920000000000 O
   0.6351130000000000    0.9829690000000000    0.3492690000000000 O
   0.8902390000000000    0.8708770000000000    0.4088820000000000 O
   0.2900320000000000    0.8754980000000000    0.4794820000000000 O
   0.9189820000000000    0.8974050000000000    0.8959859999999999 O
   0.3566110000000000    0.8360430000000000    0.7093210000000000 O
   0.3142860000000000    0.8698680000000000    0.9675000000000000 O
   0.3203830000000000    0.8241889999999999    0.2100560000000000 O
   0.6356370000000000    0.6883200000000000    0.5471590000000000 O
   0.7212830000000000    0.6081839999999999    0.7732790000000000 O
   0.6231000000000000    0.6963630000000000    0.0599070000000000 O
   0.0871250000000000    0.6096760000000000    0.8562860000000000 O
   0.7129750000000000    0.6071770000000000    0.2809510000000000 O
   0.0976660000000000    0.6128880000000000    0.3633870000000000 O
   0.3579660000000000    0.5002590000000000    0.4216940000000000 O
   0.8579660000000000    0.4997410000000000    0.5783060000000000 O
   0.3470110000000000    0.4937220000000000    0.9154940000000000 O
   0.8470110000000000    0.5062780000000000    0.0845060000000000 O
   0.5976660000000000    0.3871120000000000    0.6366130000000000 O
   0.2129750000000000    0.3928230000000000    0.7190490000000000 O
   0.5871250000000000    0.3903240000000000    0.1437140000000000 O
   0.2212830000000000    0.3918160000000000    0.2267210000000000 O
   0.1356370000000000    0.3116800000000000    0.4528410000000000 O
   0.1231000000000000    0.3036370000000000    0.9400930000000000 O
