Li4 Zn6 Ge12 O32
1.0
   8.3158460000000005    0.0000000000000000    0.0000000000000000
   0.0000000000000000    8.3167559999999998    0.0000000000000000
   0.0000000000000000    0.0366420000000000    8.3214419999999993
Li Zn Ge O
4 6 12 32
direct
   0.6239180000000000    0.6240790000000001    0.3761490000000000 Li
   0.7502410000000000    0.2490980000000000    0.5024890000000000 Li
   0.2502410000000000    0.7509020000000000    0.4975110000000000 Li
   0.1239180000000000    0.3759210000000000    0.6238510000000000 Li
   0.9980059999999999    0.0006870000000000    0.7473800000000000 Zn
   0.4995080000000000    0.4983230000000000    0.7489100000000000 Zn
   0.2513000000000000    0.2502240000000000    0.9983270000000000 Zn
   0.7513000000000000    0.7497760000000000    0.0016730000000000 Zn
   0.4980060000000000    0.9993130000000000    0.2526200000000000 Zn
   0.9995080000000000    0.5016770000000000    0.2510900000000000 Zn
   0.6251430000000000    0.1177650000000000    0.8785780000000000 Ge
   0.1323400000000000    0.6307350000000000    0.8673410000000000 Ge
   0.8788770000000000    0.3698090000000000    0.8741420000000000 Ge
   0.6323400000000000    0.3692650000000000    0.1326590000000000 Ge
   0.3788770000000000    0.6301909999999999    0.1258580000000000 Ge
   0.1251430000000000    0.8822350000000000    0.1214220000000000 Ge
   0.1155160000000000    0.1278810000000000    0.3727480000000000 Ge
   0.3784500000000000    0.3799970000000000    0.3787060000000000 Ge
   0.8731719999999999    0.8831580000000000    0.3699320000000000 Ge
   0.3731720000000000    0.1168420000000000    0.6300680000000000 Ge
   0.8784500000000000    0.6200030000000000    0.6212940000000000 Ge
   0.6155160000000000    0.8721190000000000    0.6272520000000000 Ge
   0.1030260000000000    0.3936230000000000    0.8785809999999999 O
   0.6394780000000000    0.3622580000000000    0.8907070000000000 O
   0.1119320000000000    0.8566940000000000    0.8991060000000000 O
   0.6377840000000000    0.8962570000000000    0.8558570000000000 O
   0.3958890000000000    0.1379990000000000    0.8509409999999999 O
   0.8542910000000000    0.1487450000000000    0.8635090000000000 O
   0.3526330000000000    0.6117990000000000    0.8962410000000000 O
   0.8888270000000000    0.6124590000000000    0.8622480000000000 O
   0.1377840000000000    0.1037430000000000    0.1441430000000000 O
   0.3888270000000000    0.3875410000000000    0.1377520000000000 O
   0.6119320000000000    0.1433060000000000    0.1008940000000000 O
   0.8526330000000000    0.3882010000000000    0.1037590000000000 O
   0.1394780000000000    0.6377420000000000    0.1092930000000000 O
   0.3542910000000000    0.8512550000000000    0.1364910000000000 O
   0.6030260000000000    0.6063770000000001    0.1214190000000000 O
   0.8958890000000000    0.8620010000000000    0.1490590000000000 O
   0.3601030000000000    0.1416700000000000    0.3885940000000000 O
   0.8973420000000000    0.1058170000000000    0.3920350000000000 O
   0.1424030000000000    0.3529490000000000    0.3712160000000000 O
   0.6073130000000000    0.3693010000000000    0.3529760000000000 O
   0.3702680000000000    0.6010740000000000    0.3544580000000000 O
   0.8777490000000000    0.6437030000000000    0.3976580000000000 O
   0.1109590000000000    0.8898390000000000    0.3602230000000000 O
   0.6485300000000001    0.8773800000000000    0.3919910000000000 O
   0.1485300000000000    0.1226200000000000    0.6080090000000000 O
   0.6109590000000000    0.1101610000000000    0.6397770000000000 O
   0.3777490000000000    0.3562970000000000    0.6023420000000000 O
   0.8702680000000000    0.3989260000000000    0.6455419999999999 O
   0.1073130000000000    0.6306990000000000    0.6470240000000000 O
   0.6424029999999999    0.6470510000000000    0.6287840000000000 O
   0.3973420000000000    0.8941830000000000    0.6079650000000000 O
   0.8601030000000000    0.8583300000000000    0.6114060000000000 O
