pymatgen with grid density = 1365 / number of atoms
0
Gamma
5 3 3
