Li1 Sn2 P4 H3 O16
1.0
   4.9770680000000000    0.0000000000000000    0.0000000000000000
  -1.6687719999999999    7.4483119999999996    0.0000000000000000
  -0.2269090000000000   -0.1676120000000000    8.1550779999999996
Li Sn P H O
1 2 4 3 16
direct
   0.8737340000000000    0.3338850000000000    0.3437610000000000 Li
   0.0016290000000000    0.4999560000000000    0.9968640000000000 Sn
   0.4948910000000000    0.9949950000000000    0.4997050000000000 Sn
   0.1199010000000000    0.2469250000000000    0.6647250000000000 P
   0.3761670000000000    0.2335470000000000    0.1531050000000000 P
   0.6174820000000000    0.7572290000000000    0.8408830000000000 P
   0.8829700000000000    0.7538420000000000    0.3273710000000000 P
   0.4417980000000000    0.4823020000000000    0.6419910000000000 H
   0.5610530000000000    0.5544130000000000    0.4360530000000000 H
   0.9535970000000000    0.9737590000000000    0.9832480000000000 H
   0.1140850000000000    0.8465730000000000    0.4445160000000000 O
   0.0232010000000000    0.2981450000000000    0.8297940000000000 O
   0.1854440000000000    0.3757150000000000    0.1830630000000000 O
   0.2760060000000000    0.4263600000000000    0.5767620000000000 O
   0.3587250000000000    0.6652490000000000    0.9295980000000000 O
   0.5443590000000000    0.8008670000000000    0.6615890000000000 O
   0.2273540000000000    0.0691380000000000    0.0622940000000000 O
   0.3208770000000000    0.1211770000000000    0.6826360000000000 O
   0.6542500000000000    0.8605830000000000    0.3159770000000000 O
   0.7563200000000000    0.9317850000000000    0.9325490000000000 O
   0.4777830000000000    0.1953830000000000    0.3325120000000000 O
   0.6419430000000000    0.3409180000000000    0.0756480000000000 O
   0.7541670000000000    0.5641890000000001    0.4091010000000000 O
   0.8020470000000000    0.6171130000000000    0.8199030000000000 O
   0.9804000000000000    0.7057200000000000    0.1612070000000000 O
   0.8800650000000000    0.1749810000000000    0.5405860000000000 O
