Li2 La2 C4 O12
1.0
   3.4819529999999999    3.9543249999999999    3.7720970000000000
   3.4819529999999999   -3.9543249999999999    3.7720970000000000
   7.0110650000000003    0.0000000000000000   -0.9109870000000000
Li La C O
2 2 4 12
direct
   0.7497170000000000    0.2502830000000000    0.2500000000000000 Li
   0.2502830000000000    0.7497170000000000    0.7500000000000000 Li
   0.8035610000000000    0.1964390000000000    0.7500000000000000 La
   0.1964390000000000    0.8035610000000000    0.2500000000000000 La
   0.3239960000000000    0.2103750000000000    0.6286200000000000 C
   0.7896250000000000    0.6760040000000000    0.8713800000000000 C
   0.6760040000000000    0.7896250000000000    0.3713800000000000 C
   0.2103750000000000    0.3239960000000000    0.1286200000000000 C
   0.5450050000000000    0.2089440000000000    0.5619890000000000 O
   0.7910560000000000    0.4549950000000000    0.9380110000000000 O
   0.4549950000000000    0.7910560000000000    0.4380110000000000 O
   0.2089440000000000    0.5450050000000000    0.0619890000000000 O
   0.2031390000000000    0.0358540000000000    0.8043160000000000 O
   0.9641459999999999    0.7968610000000000    0.6956840000000000 O
   0.7968610000000000    0.9641459999999999    0.1956840000000000 O
   0.0358540000000000    0.2031390000000000    0.3043160000000000 O
   0.7892709999999999    0.6177550000000001    0.4795740000000000 O
   0.3822450000000000    0.2107290000000000    0.0204260000000000 O
   0.2107290000000000    0.3822450000000000    0.5204260000000001 O
   0.6177550000000001    0.7892709999999999    0.9795739999999999 O
