ALGO = Fast
EDIFF = 0.0026000000000000003
ENCUT = 520
IBRION = 2
ISIF = 3
ISMEAR = -5
ISPIN = 2
LASPH = True
LMAXMIX = 6
LORBIT = 11
LREAL = Auto
LWAVE = False
MAGMOM = 2*-0.0 1*-0.003 2*-0.001 1*-0.003 1*-0.002 1*0.0 1*-0.002 8*0.0 2*-0.002 1*-0.006 1*-0.005 1*-0.002 1*0.033 1*0.008 1*-0.005 1*-0.002 1*0.003 2*-0.006 2*-0.005 1*0.003 1*0.006 1*-0.005 1*-0.004 1*-0.005 1*-0.002 1*-0.001 1*0.008 1*-0.005 1*-0.002 1*0.0 1*0.006 1*-0.005 1*-0.004 1*-0.001 4*-0.002 1*-0.006 1*0.033
NELM = 100
NSW = 99
PREC = Accurate
SIGMA = 0.05
