Li2 H40 C16 Br2 O8
1.0
   4.0630360000000003    6.7047179999999997    0.0000000000000000
  -4.0630360000000003    6.7047179999999997    0.0000000000000000
   0.0000000000000000    1.3851659999999999   12.3052440000000001
Li H C Br O
2 40 16 2 8
direct
   0.0613520000000000    0.9386480000000000    0.7500000000000000 Li
   0.9386480000000000    0.0613520000000000    0.2500000000000000 Li
   0.1524370000000000    0.7024170000000000    0.4750990000000000 H
   0.2975830000000000    0.8475630000000000    0.0249010000000000 H
   0.8475630000000000    0.2975830000000000    0.5249010000000000 H
   0.7024170000000000    0.1524370000000000    0.9750990000000000 H
   0.2477620000000000    0.5500400000000000    0.5948440000000000 H
   0.4499600000000000    0.7522380000000000    0.9051560000000000 H
   0.7522380000000000    0.4499600000000000    0.4051560000000000 H
   0.5500400000000000    0.2477620000000000    0.0948440000000000 H
   0.4377590000000000    0.8847050000000000    0.5973640000000000 H
   0.1152950000000000    0.5622410000000000    0.9026360000000000 H
   0.5622410000000000    0.1152950000000000    0.4026360000000000 H
   0.8847050000000000    0.4377590000000000    0.0973640000000000 H
   0.4958880000000000    0.6342030000000000    0.6080630000000000 H
   0.3657970000000000    0.5041120000000000    0.8919370000000000 H
   0.5041120000000000    0.3657970000000000    0.3919370000000000 H
   0.6342030000000000    0.4958880000000000    0.1080630000000000 H
   0.4262030000000000    0.7712130000000000    0.4800780000000000 H
   0.2287870000000000    0.5737970000000000    0.0199220000000000 H
   0.5737970000000000    0.2287870000000000    0.5199220000000000 H
   0.7712130000000000    0.4262030000000000    0.9800780000000000 H
   0.9011810000000000    0.6420640000000000    0.5894640000000000 H
   0.3579360000000000    0.0988190000000000    0.9105360000000000 H
   0.0988190000000000    0.3579360000000000    0.4105360000000000 H
   0.6420640000000000    0.9011810000000000    0.0894640000000000 H
   0.8411689999999999    0.8934940000000000    0.5777280000000000 H
   0.1065060000000000    0.1588310000000000    0.9222720000000000 H
   0.1588310000000000    0.1065060000000000    0.4222720000000000 H
   0.8934940000000000    0.8411689999999999    0.0777280000000000 H
   0.7723380000000000    0.7804260000000000    0.8667930000000000 H
   0.2195740000000000    0.2276620000000000    0.6332070000000000 H
   0.2276620000000000    0.2195740000000000    0.1332070000000000 H
   0.7804260000000000    0.7723380000000000    0.3667930000000000 H
   0.6450510000000000    0.9174300000000000    0.7509630000000000 H
   0.0825700000000000    0.3549490000000000    0.7490370000000000 H
   0.3549490000000000    0.0825700000000000    0.2490370000000000 H
   0.9174300000000000    0.6450510000000000    0.2509630000000000 H
   0.7328150000000000    0.6583170000000000    0.7632710000000000 H
   0.3416830000000000    0.2671850000000000    0.7367290000000000 H
   0.2671850000000000    0.3416830000000000    0.2367290000000000 H
   0.6583170000000000    0.7328150000000000    0.2632710000000000 H
   0.1465730000000000    0.6971460000000000    0.5649430000000000 C
   0.3028540000000000    0.8534270000000000    0.9350570000000000 C
   0.8534270000000000    0.3028540000000000    0.4350570000000000 C
   0.6971460000000000    0.1465730000000000    0.0649430000000000 C
   0.4030720000000000    0.7763630000000000    0.5691480000000000 C
   0.2236370000000000    0.5969280000000000    0.9308520000000000 C
   0.5969280000000000    0.2236370000000000    0.4308520000000000 C
   0.7763630000000000    0.4030720000000000    0.0691480000000000 C
   0.9444570000000000    0.7498899999999999    0.6108840000000000 C
   0.2501100000000000    0.0555430000000000    0.8891160000000000 C
   0.0555430000000000    0.2501100000000000    0.3891160000000000 C
   0.7498899999999999    0.9444570000000000    0.1108840000000000 C
   0.7616460000000000    0.7784010000000000    0.7790620000000000 C
   0.2215990000000000    0.2383540000000000    0.7209380000000000 C
   0.2383540000000000    0.2215990000000000    0.2209380000000000 C
   0.7784010000000000    0.7616460000000000    0.2790620000000000 C
   0.7392250000000000    0.2607750000000000    0.7500000000000000 Br
   0.2607750000000000    0.7392250000000000    0.2500000000000000 Br
   0.2037410000000000    0.8319950000000000    0.6003920000000000 O
   0.1680050000000000    0.7962590000000001    0.8996080000000000 O
   0.7962590000000001    0.1680050000000000    0.3996080000000000 O
   0.8319950000000000    0.2037410000000000    0.1003920000000000 O
   0.9432650000000000    0.7511290000000000    0.7268410000000000 O
   0.2488710000000000    0.0567350000000000    0.7731590000000000 O
   0.0567350000000000    0.2488710000000000    0.2731590000000000 O
   0.7511290000000000    0.9432650000000000    0.2268410000000000 O
