Rb4 Li4 S4 O16
1.0
   8.8941239999999997    0.0000000000000000    0.0000000000000000
   0.0000000000000000    5.3673310000000001    0.0000000000000000
   0.0000000000000000    5.3690629999999997    9.2690610000000007
Rb Li S O
4 4 4 16
direct
   0.5043879999999999    0.9906680000000000    0.7756160000000000 Rb
   0.0043880000000000    0.0093320000000000    0.7243840000000000 Rb
   0.4956120000000000    0.0093320000000000    0.2243840000000000 Rb
   0.9956120000000001    0.9906680000000000    0.2756160000000000 Rb
   0.6785770000000000    0.3333380000000000    0.4097030000000000 Li
   0.8214230000000000    0.3333380000000000    0.9097030000000000 Li
   0.3214230000000000    0.6666620000000000    0.5902970000000000 Li
   0.1785770000000000    0.6666620000000000    0.0902970000000000 Li
   0.7064260000000000    0.6683610000000000    0.5772830000000000 S
   0.2064260000000000    0.3316390000000000    0.9227170000000000 S
   0.2935740000000000    0.3316390000000000    0.4227170000000000 S
   0.7935740000000000    0.6683610000000000    0.0772830000000000 S
   0.7475930000000000    0.6287469999999999    0.4528650000000000 O
   0.7524070000000000    0.6287469999999999    0.9528650000000000 O
   0.2524070000000000    0.3712530000000000    0.5471350000000000 O
   0.2475930000000000    0.3712530000000000    0.0471350000000000 O
   0.7745420000000000    0.4313790000000000    0.7116420000000000 O
   0.2745420000000000    0.5686210000000000    0.7883580000000000 O
   0.2254580000000000    0.5686210000000000    0.2883580000000000 O
   0.7254580000000000    0.4313790000000000    0.2116420000000000 O
   0.9595850000000000    0.6608780000000000    0.0937420000000000 O
   0.4595850000000000    0.3391220000000000    0.4062580000000000 O
   0.0404150000000000    0.3391220000000000    0.9062580000000000 O
   0.5404150000000000    0.6608780000000000    0.5937420000000000 O
   0.7346560000000000    0.9529210000000000    0.0494370000000000 O
   0.2346560000000000    0.0470790000000000    0.4505630000000000 O
   0.2653440000000000    0.0470790000000000    0.9505630000000000 O
   0.7653440000000000    0.9529210000000000    0.5494370000000000 O
