Rb2 Li4 Cd2 C4 O12 F2
1.0
   2.4942129999999998   -4.3201029999999996    0.0000000000000000
   2.4942129999999998    4.3201029999999996    0.0000000000000000
   0.0000000000000000    0.0000000000000000   15.6240480000000002
Rb Li Cd C O F
2 4 2 4 12 2
direct
   0.0000000000000000    0.0000000000000000    0.7500000000000000 Rb
   0.0000000000000000    0.0000000000000000    0.2500000000000000 Rb
   0.3333330000000000    0.6666670000000000    0.6304910000000000 Li
   0.6666670000000000    0.3333330000000000    0.1304910000000000 Li
   0.6666670000000000    0.3333330000000000    0.3695090000000000 Li
   0.3333330000000000    0.6666670000000000    0.8695090000000000 Li
   0.0000000000000000    0.0000000000000000    0.5000000000000000 Cd
   0.0000000000000000    0.0000000000000000    0.0000000000000000 Cd
   0.6666670000000000    0.3333330000000000    0.5902020000000000 C
   0.3333330000000000    0.6666670000000000    0.0902020000000000 C
   0.3333330000000000    0.6666670000000000    0.4097980000000000 C
   0.6666670000000000    0.3333330000000000    0.9097980000000000 C
   0.6667910000000000    0.5943450000000000    0.5908170000000000 O
   0.4056550000000000    0.0724460000000000    0.5908170000000000 O
   0.9275540000000000    0.3332090000000000    0.5908170000000000 O
   0.3332090000000000    0.4056550000000000    0.0908170000000000 O
   0.5943450000000000    0.9275540000000000    0.0908170000000000 O
   0.0724460000000000    0.6667910000000000    0.0908170000000000 O
   0.3332090000000000    0.4056550000000000    0.4091830000000000 O
   0.5943450000000000    0.9275540000000000    0.4091830000000000 O
   0.0724460000000000    0.6667910000000000    0.4091830000000000 O
   0.6667910000000000    0.5943450000000000    0.9091830000000000 O
   0.4056550000000000    0.0724460000000000    0.9091830000000000 O
   0.9275540000000000    0.3332090000000000    0.9091830000000000 O
   0.3333330000000000    0.6666670000000000    0.7500000000000000 F
   0.6666670000000000    0.3333330000000000    0.2500000000000000 F
