ALGO = Fast
EDIFF = 0.0037
ENCUT = 520
IBRION = 2
ISIF = 3
ISMEAR = -5
ISPIN = 2
LASPH = True
LMAXMIX = 6
LORBIT = 11
LREAL = Auto
LWAVE = False
MAGMOM = 2*0.0 1*0.004 1*0.0 2*-0.001 1*0.0 1*0.01 1*-0.001 3*0.0 1*0.004 1*0.0 2*-0.001 1*0.0 1*0.009 1*-0.001 1*0.0 5*-0.001 2*0.0 2*-0.001 3*0.0 2*-0.001 2*0.001 1*0.0 1*-0.002 2*0.0 1*0.007 1*0.006 1*0.0 1*0.066 1*0.131 1*-0.001 1*0.001 1*0.006 1*0.005 2*0.001 1*-0.002 1*0.001 1*-0.001 1*-0.002 2*0.001 1*0.0 1*-0.003 1*0.0 1*-0.001 2*0.006 1*0.0 1*0.062 1*0.121 2*0.0 2*0.005 2*0.001 1*-0.002 1*0.001
NELM = 100
NSW = 99
PREC = Accurate
SIGMA = 0.05
