pymatgen with grid density = 880 / number of atoms
0
Gamma
4 1 1
