Ba20 Li4 Bi8 O42
1.0
   6.0987479999999996    0.0000000000000000    0.0000000000000000
   0.0000000000000000   14.7416990000000006    0.0000000000000000
   0.0000000000000000    0.0000000000000000   14.8559979999999996
Ba Li Bi O
20 4 8 42
direct
   0.0000000000000000    0.0018520000000000    0.0901090000000000 Ba
   0.0000000000000000    0.0781080000000000    0.5740080000000000 Ba
   0.5000000000000000    0.1651200000000000    0.2138240000000000 Ba
   0.5000000000000000    0.1739870000000000    0.7965070000000000 Ba
   0.5000000000000000    0.2482220000000000    0.4961050000000000 Ba
   0.0000000000000000    0.2489070000000000    0.9970150000000000 Ba
   0.0000000000000000    0.3235660000000000    0.2984050000000000 Ba
   0.0000000000000000    0.3430000000000000    0.7090240000000000 Ba
   0.5000000000000000    0.4069110000000000    0.0828410000000000 Ba
   0.5000000000000000    0.4949750000000000    0.5865490000000000 Ba
   0.0000000000000000    0.5018520000000000    0.9098910000000000 Ba
   0.0000000000000000    0.5781080000000000    0.4259920000000000 Ba
   0.5000000000000000    0.6651200000000000    0.7861760000000000 Ba
   0.5000000000000000    0.6739870000000000    0.2034930000000000 Ba
   0.5000000000000000    0.7482220000000001    0.5038950000000000 Ba
   0.0000000000000000    0.7489070000000000    0.0029850000000000 Ba
   0.0000000000000000    0.8235660000000000    0.7015950000000000 Ba
   0.0000000000000000    0.8430000000000000    0.2909760000000000 Ba
   0.5000000000000000    0.9069110000000000    0.9171589999999999 Ba
   0.5000000000000000    0.9949750000000001    0.4134510000000000 Ba
   0.5000000000000000    0.1213490000000000    0.0058420000000000 Li
   0.0000000000000000    0.3717630000000000    0.5054720000000000 Li
   0.5000000000000000    0.6213490000000000    0.9941580000000000 Li
   0.0000000000000000    0.8717630000000000    0.4945280000000000 Li
   0.0000000000000000    0.0355160000000000    0.8489350000000000 Bi
   0.0000000000000000    0.0857740000000000    0.3172120000000000 Bi
   0.5000000000000000    0.4113270000000000    0.8174460000000000 Bi
   0.5000000000000000    0.4559380000000000    0.3453760000000000 Bi
   0.0000000000000000    0.5355160000000000    0.1510650000000000 Bi
   0.0000000000000000    0.5857740000000000    0.6827880000000000 Bi
   0.5000000000000000    0.9113270000000000    0.1825540000000000 Bi
   0.5000000000000000    0.9559380000000000    0.6546240000000000 Bi
   0.2406600000000000    0.0233770000000000    0.7429500000000000 O
   0.7593400000000000    0.0233770000000000    0.7429500000000000 O
   0.2504160000000000    0.0000650000000000    0.2484360000000000 O
   0.7495840000000000    0.0000650000000000    0.2484360000000000 O
   0.5000000000000000    0.0074410000000000    0.0772690000000000 O
   0.5000000000000000    0.0839640000000000    0.5860900000000000 O
   0.7625660000000000    0.1046750000000000    0.9268410000000000 O
   0.2374340000000000    0.1046750000000000    0.9268410000000000 O
   0.2550130000000000    0.1600660000000000    0.3755950000000000 O
   0.7449870000000000    0.1600660000000000    0.3755950000000000 O
   0.0000000000000000    0.1657250000000000    0.1951100000000000 O
   0.5000000000000000    0.2396560000000000    0.0585100000000000 O
   0.0000000000000000    0.2533830000000000    0.5668790000000000 O
   0.5000000000000000    0.3448080000000000    0.2560510000000000 O
   0.5000000000000000    0.3336730000000000    0.6942360000000000 O
   0.7610890000000000    0.3342280000000000    0.8694610000000000 O
   0.2389110000000000    0.3342280000000000    0.8694610000000000 O
   0.2562140000000000    0.4007090000000000    0.4300910000000000 O
   0.7437859999999999    0.4007090000000000    0.4300910000000000 O
   0.0000000000000000    0.4083700000000000    0.0894860000000000 O
   0.0000000000000000    0.4835200000000000    0.5838540000000000 O
   0.2406600000000000    0.5233770000000000    0.2570500000000000 O
   0.7593400000000000    0.5233770000000000    0.2570500000000000 O
   0.2504160000000000    0.5000650000000000    0.7515640000000000 O
   0.7495840000000000    0.5000650000000000    0.7515640000000000 O
   0.5000000000000000    0.5074410000000000    0.9227310000000000 O
   0.5000000000000000    0.5839640000000000    0.4139100000000000 O
   0.7625660000000000    0.6046750000000000    0.0731590000000000 O
   0.2374340000000000    0.6046750000000000    0.0731590000000000 O
   0.2550130000000000    0.6600660000000000    0.6244050000000000 O
   0.7449870000000000    0.6600660000000000    0.6244050000000000 O
   0.0000000000000000    0.6657250000000000    0.8048900000000000 O
   0.5000000000000000    0.7396560000000000    0.9414900000000000 O
   0.0000000000000000    0.7533830000000000    0.4331210000000000 O
   0.5000000000000000    0.8448080000000000    0.7439490000000000 O
   0.5000000000000000    0.8336730000000000    0.3057640000000000 O
   0.7610890000000000    0.8342280000000000    0.1305390000000000 O
   0.2389110000000000    0.8342280000000000    0.1305390000000000 O
   0.2562140000000000    0.9007090000000000    0.5699090000000000 O
   0.7437859999999999    0.9007090000000000    0.5699090000000000 O
   0.0000000000000000    0.9083700000000000    0.9105140000000000 O
   0.0000000000000000    0.9835199999999999    0.4161460000000000 O
