pymatgen with grid density = 1185 / number of atoms
0
Monkhorst
2 2 2
