Li4 Si24 Bi4 O56
1.0
  -3.8295270000000001    7.7997880000000004    9.8692569999999993
   3.8295270000000001   -7.7997880000000004    9.8692569999999993
   3.8295270000000001    7.7997880000000004   -9.8692569999999993
Li Si Bi O
4 24 4 56
direct
   0.2500000000000000    0.2500000000000000    0.0000000000000000 Li
   0.7500000000000000    0.7500000000000000    0.0000000000000000 Li
   0.5000000000000000    0.0000000000000000    0.5000000000000000 Li
   0.0000000000000000    0.5000000000000000    0.5000000000000000 Li
   0.3675810000000000    0.6757100000000000    0.0432910000000000 Si
   0.1324190000000000    0.1757100000000000    0.3081290000000000 Si
   0.8337540000000000    0.2391010000000000    0.0728550000000000 Si
   0.9251690000000000    0.1102980000000000    0.3324110000000000 Si
   0.5748310000000000    0.9072420000000000    0.1851290000000000 Si
   0.2778870000000000    0.6102980000000000    0.1851290000000000 Si
   0.2221130000000000    0.4072420000000000    0.3324110000000000 Si
   0.3337540000000000    0.2608990000000000    0.5946530000000000 Si
   0.7698469999999999    0.0022790000000000    0.4759610000000000 Si
   0.0263180000000000    0.5022790000000000    0.2324320000000000 Si
   0.4736820000000000    0.7061140000000000    0.4759610000000000 Si
   0.7301530000000001    0.2061140000000000    0.2324320000000000 Si
   0.5263180000000000    0.2938860000000000    0.5240390000000000 Si
   0.2301530000000000    0.9977210000000000    0.5240390000000000 Si
   0.9736820000000000    0.4977210000000000    0.7675680000000000 Si
   0.2698470000000000    0.7938860000000000    0.7675680000000000 Si
   0.6662460000000000    0.7391010000000000    0.4053470000000000 Si
   0.4251690000000000    0.0927580000000000    0.8148710000000000 Si
   0.7778870000000000    0.5927580000000000    0.6675890000000000 Si
   0.0748310000000000    0.8897020000000000    0.6675890000000000 Si
   0.7221130000000000    0.3897020000000000    0.8148710000000000 Si
   0.1662460000000000    0.7608990000000000    0.9271450000000000 Si
   0.8675810000000000    0.8242900000000000    0.6918710000000000 Si
   0.6324190000000000    0.3242900000000000    0.9567090000000000 Si
   0.9655049999999999    0.7500000000000000    0.2155050000000000 Bi
   0.4655050000000000    0.2500000000000000    0.2155050000000000 Bi
   0.5344950000000001    0.7500000000000000    0.7844950000000001 Bi
   0.0344950000000000    0.2500000000000000    0.7844950000000001 Bi
   0.4869540000000000    0.8145920000000000    0.1731300000000000 O
   0.3585380000000000    0.6861760000000000    0.1731300000000000 O
   0.2705280000000000    0.7548400000000000    0.0253680000000000 O
   0.4184090000000000    0.2274140000000000    0.0189680000000000 O
   0.7915540000000000    0.6005590000000000    0.0189680000000000 O
   0.1363210000000000    0.9641330000000000    0.1004540000000000 O
   0.9184090000000000    0.8994410000000000    0.1909950000000000 O
   0.2915540000000000    0.2725860000000000    0.1909950000000000 O
   0.4397690000000000    0.2203920000000000    0.5321190000000000 O
   0.3117270000000000    0.0923510000000000    0.5321190000000000 O
   0.1144310000000000    0.0552920000000000    0.5395180000000001 O
   0.4842250000000000    0.4250860000000000    0.5395180000000001 O
   0.0130460000000000    0.1861760000000000    0.3276380000000000 O
   0.1414620000000000    0.3145920000000000    0.3276380000000000 O
   0.2294720000000000    0.2548400000000000    0.4843120000000000 O
   0.9842250000000000    0.4447080000000000    0.0591390000000000 O
   0.6144309999999999    0.0749140000000000    0.0591390000000000 O
   0.8033000000000000    0.1143790000000000    0.2570120000000000 O
   0.6967000000000000    0.9537120000000000    0.3110790000000000 O
   0.3573670000000000    0.6143790000000000    0.3110790000000000 O
   0.1426330000000000    0.4537120000000000    0.2570120000000000 O
   0.8117270000000000    0.2796080000000000    0.2193770000000000 O
   0.9397690000000000    0.4076490000000000    0.2193770000000000 O
   0.5408610000000000    0.1047780000000000    0.3091380000000000 O
   0.2043600000000000    0.7682770000000000    0.3091380000000000 O
   0.9591390000000000    0.2682770000000000    0.5639170000000000 O
   0.2956400000000000    0.6047780000000000    0.5639170000000000 O
   0.3636790000000000    0.4641330000000000    0.8278120000000000 O
   0.6363210000000000    0.5358670000000000    0.1721880000000000 O
   0.7043600000000000    0.3952220000000000    0.4360830000000000 O
   0.4591390000000000    0.8952220000000000    0.6908620000000000 O
   0.7956400000000000    0.2317230000000000    0.6908620000000000 O
   0.0408610000000000    0.7317230000000000    0.4360830000000000 O
   0.1882730000000000    0.7203920000000000    0.7806230000000000 O
   0.0602310000000000    0.5923510000000000    0.7806230000000000 O
   0.3033000000000000    0.0462880000000000    0.6889210000000000 O
   0.8573670000000000    0.5462880000000000    0.7429880000000000 O
   0.6426330000000000    0.3856210000000000    0.6889210000000000 O
   0.1967000000000000    0.8856210000000000    0.7429880000000000 O
   0.0157750000000000    0.5552920000000000    0.9408609999999999 O
   0.3855690000000000    0.9250860000000000    0.9408609999999999 O
   0.7705280000000000    0.7451600000000000    0.5156880000000000 O
   0.8585380000000000    0.6854080000000000    0.6723620000000000 O
   0.9869540000000000    0.8138240000000000    0.6723620000000000 O
   0.8855690000000001    0.9447080000000000    0.4604820000000000 O
   0.5157750000000000    0.5749140000000000    0.4604820000000000 O
   0.5602310000000000    0.7796080000000000    0.4678810000000000 O
   0.6882730000000000    0.9076490000000000    0.4678810000000000 O
   0.7084460000000000    0.7274140000000000    0.8090050000000000 O
   0.0815910000000000    0.1005590000000000    0.8090050000000000 O
   0.8636790000000000    0.0358670000000000    0.8995460000000000 O
   0.5815910000000000    0.7725860000000000    0.9810320000000000 O
   0.2084460000000000    0.3994410000000000    0.9810320000000000 O
   0.7294720000000000    0.2451600000000000    0.9746320000000001 O
   0.5130460000000000    0.1854080000000000    0.8268700000000000 O
   0.6414620000000000    0.3138240000000000    0.8268700000000000 O
