Li12 Lu4 N24 O72
1.0
   0.0000000000000000    7.5676185499999997    0.0000000000000000
   7.4817274100000004    0.0000000000000000   -2.2695995000000000
  -7.4887766999999998    0.0000000000000000  -22.8799136499999989
Li Lu N O
12 4 24 72
direct
   0.8157670500000000    0.7062688700000000    0.6339854400000000 Li
   0.1842329500000000    0.2937311300000000    0.3660145600000000 Li
   0.3157670500000000    0.7937311300000000    0.8660145600000000 Li
   0.6842329500000000    0.2062688700000000    0.1339854400000000 Li
   0.5579252800000000    0.0010156900000000    0.7453204600000000 Li
   0.4420747200000000    0.9989843100000000    0.2546795400000000 Li
   0.0579252800000000    0.4989843100000000    0.7546795400000000 Li
   0.9420747200000000    0.5010156900000000    0.2453204600000000 Li
   0.2899260600000000    0.7425854500000000    0.5259827400000000 Li
   0.7100739400000000    0.2574145500000000    0.4740172600000000 Li
   0.7899260600000000    0.7574145500000000    0.9740172600000000 Li
   0.2100739400000000    0.2425854500000000    0.0259827400000000 Li
   0.3060345800000000    0.2427130700000000    0.6096806800000000 Lu
   0.6939654200000001    0.7572869300000000    0.3903193200000000 Lu
   0.8060345799999999    0.2572869300000000    0.8903193200000000 Lu
   0.1939654200000000    0.7427130700000000    0.1096806800000000 Lu
   0.7981946400000000    0.7353113000000000    0.7353682600000000 N
   0.2018053600000000    0.2646887000000000    0.2646317400000000 N
   0.2981946400000000    0.7646887000000000    0.7646317400000000 N
   0.7018053600000000    0.2353113000000000    0.2353682600000000 N
   0.3020323300000000    0.2609663400000000    0.7292439100000000 N
   0.6979676700000000    0.7390336600000000    0.2707560900000000 N
   0.8020323300000000    0.2390336600000000    0.7707560900000000 N
   0.1979676700000000    0.7609663400000000    0.2292439100000000 N
   0.4942314200000000    0.1458121100000000    0.9455614800000000 N
   0.5057685800000000    0.8541878899999999    0.0544385200000000 N
   0.9942314200000000    0.3541878900000000    0.5544385200000000 N
   0.0057685800000000    0.6458121100000001    0.4455614800000000 N
   0.1274112200000000    0.4001620300000000    0.9357102200000000 N
   0.8725887800000000    0.5998379700000001    0.0642897800000000 N
   0.6274112200000000    0.0998379700000000    0.5642897800000000 N
   0.3725887800000000    0.9001620299999999    0.4357102200000000 N
   0.1151376400000000    0.9270667800000000    0.6066375899999999 N
   0.8848623600000000    0.0729332200000000    0.3933624100000000 N
   0.6151376400000000    0.5729332200000000    0.8933624100000001 N
   0.3848623600000000    0.4270667800000000    0.1066375900000000 N
   0.0063077300000000    0.9477698800000000    0.9024062000000000 N
   0.9936922700000000    0.0522301200000000    0.0975938000000000 N
   0.5063077300000000    0.5522301200000000    0.5975938000000000 N
   0.4936922700000000    0.4477698800000000    0.4024062000000000 N
   0.3969102500000000    0.1531810800000000    0.7008925900000000 O
   0.6030897500000000    0.8468189200000000    0.2991074100000000 O
   0.8969102500000000    0.3468189200000000    0.7991074100000000 O
   0.1030897500000000    0.6531810800000000    0.2008925900000000 O
   0.5253826300000000    0.0921826800000000    0.8962157700000000 O
   0.4746173700000000    0.9078173200000000    0.1037842300000000 O
   0.0253826300000000    0.4078173200000000    0.6037842300000000 O
   0.9746173700000000    0.5921826800000000    0.3962157700000000 O
   0.6096882500000000    0.2469820600000000    0.9674910000000000 O
   0.3903117500000000    0.7530179400000000    0.0325090000000000 O
   0.1096882500000000    0.2530179400000000    0.5325090000000000 O
   0.8903117500000000    0.7469820600000000    0.4674910000000000 O
   0.3002684900000000    0.2689074200000000    0.7800244100000000 O
   0.6997315100000000    0.7310925800000000    0.2199755900000000 O
   0.8002684900000000    0.2310925800000000    0.7199755900000000 O
   0.1997315100000000    0.7689074200000000    0.2800244100000000 O
   0.2632316700000000    0.4567132000000000    0.9576066400000000 O
   0.7367683300000000    0.5432868000000000    0.0423933600000000 O
   0.7632316700000000    0.0432868000000000    0.5423933600000000 O
   0.2367683300000000    0.9567132000000000    0.4576066400000000 O
   0.0479506600000000    0.0593250700000000    0.8671205000000000 O
   0.9520493400000000    0.9406749300000000    0.1328795000000000 O
   0.5479506600000000    0.4406749300000000    0.6328795000000000 O
   0.4520493400000000    0.5593250700000000    0.3671205000000000 O
   0.3588200800000000    0.1020150400000000    0.9709970800000000 O
   0.6411799200000000    0.8979849600000001    0.0290029200000000 O
   0.8588200800000000    0.3979849600000000    0.5290029200000000 O
   0.1411799200000000    0.6020150399999999    0.4709970800000000 O
   0.2962448900000000    0.7545997100000000    0.7132881599999999 O
   0.7037551100000000    0.2454002900000000    0.2867118400000000 O
   0.7962448900000000    0.7454002900000000    0.7867118400000001 O
   0.2037551100000000    0.2545997100000000    0.2132881600000000 O
   0.6391588700000000    0.4743452600000000    0.4292409000000000 O
   0.3608411300000000    0.5256547400000000    0.5707591000000000 O
   0.1391588700000000    0.0256547400000000    0.0707591000000000 O
   0.8608411300000000    0.9743452600000000    0.9292409000000000 O
   0.0335283500000000    0.7911659700000000    0.5992213300000000 O
   0.9664716500000000    0.2088340300000000    0.4007786700000000 O
   0.5335283500000000    0.7088340300000000    0.9007786700000000 O
   0.4664716500000000    0.2911659700000000    0.0992213300000000 O
   0.0197201300000000    0.3028044600000000    0.9641810500000000 O
   0.9802798700000001    0.6971955399999999    0.0358189500000000 O
   0.5197201299999999    0.1971955400000000    0.5358189500000000 O
   0.4802798700000000    0.8028044600000001    0.4641810500000000 O
   0.0816590500000000    0.4269422100000000    0.8863492500000000 O
   0.9183409500000000    0.5730577900000000    0.1136507500000000 O
   0.5816590500000000    0.0730577900000000    0.6136507500000000 O
   0.4183409500000000    0.9269422100000000    0.3863492500000000 O
   0.2081784700000000    0.3608969700000000    0.6988772599999999 O
   0.7918215300000000    0.6391030300000000    0.3011227400000000 O
   0.7081784700000000    0.1391030300000000    0.8011227400000001 O
   0.2918215300000000    0.8608969700000000    0.1988772600000000 O
   0.5978276700000000    0.6797836700000000    0.5881451000000000 O
   0.4021723300000000    0.3202163300000000    0.4118549000000000 O
   0.0978276700000000    0.8202163300000000    0.9118549000000000 O
   0.9021723300000000    0.1797836700000000    0.0881451000000000 O
   0.0642632500000000    0.0496801100000000    0.6378033600000000 O
   0.9357367500000000    0.9503198899999999    0.3621966400000000 O
   0.5642632500000000    0.4503198900000000    0.8621966400000000 O
   0.4357367500000000    0.5496801100000001    0.1378033600000000 O
   0.2628712400000000    0.9493583100000000    0.5807413900000000 O
   0.7371287600000000    0.0506416900000000    0.4192586100000000 O
   0.7628712400000000    0.5506416900000000    0.9192586100000000 O
   0.2371287600000000    0.4493583100000000    0.0807413900000000 O
   0.3915996400000000    0.8769375900000000    0.7911802600000000 O
   0.6084003600000000    0.1230624100000000    0.2088197400000000 O
   0.8915996400000000    0.6230624100000000    0.7088197400000000 O
   0.1084003600000000    0.3769375900000000    0.2911802600000000 O
   0.7081829900000000    0.8353807900000000    0.7047683100000000 O
   0.2918170100000000    0.1646192100000000    0.2952316900000000 O
   0.2081829900000000    0.6646192100000000    0.7952316900000000 O
   0.7918170100000000    0.3353807900000000    0.2047683100000000 O
