Sr8 Li4 Sc4 B16 O40
1.0
   5.2733179999999997    0.0000000000000000    0.0000000000000000
   0.0000000000000000   12.7586449999999996    0.0000000000000000
   0.0000000000000000    6.4501590000000002   12.3517860000000006
Sr Li Sc B O
8 4 4 16 40
direct
   0.9326790000000000    0.9718370000000000    0.8763840000000001 Sr
   0.5673210000000000    0.9718370000000000    0.3763840000000000 Sr
   0.0673210000000000    0.0281630000000000    0.1236160000000000 Sr
   0.4326790000000000    0.0281630000000000    0.6236159999999999 Sr
   0.1169210000000000    0.3309110000000000    0.8508340000000000 Sr
   0.6169210000000001    0.6690890000000000    0.6491660000000000 Sr
   0.8830789999999999    0.6690890000000000    0.1491660000000000 Sr
   0.3830790000000000    0.3309110000000000    0.3508340000000000 Sr
   0.1029970000000000    0.5219670000000000    0.5995210000000000 Li
   0.3970030000000000    0.5219670000000000    0.0995210000000000 Li
   0.8970030000000000    0.4780330000000000    0.4004790000000000 Li
   0.6029970000000000    0.4780330000000000    0.9004790000000000 Li
   0.0689150000000000    0.7522100000000000    0.3826870000000000 Sc
   0.5689149999999999    0.2477900000000000    0.1173130000000000 Sc
   0.9310850000000001    0.2477900000000000    0.6173130000000000 Sc
   0.4310850000000000    0.7522100000000000    0.8826870000000000 Sc
   0.3609020000000000    0.6041870000000000    0.2943100000000000 B
   0.1090290000000000    0.8569150000000000    0.5505390000000000 B
   0.3909710000000000    0.8569150000000000    0.0505390000000000 B
   0.8909710000000000    0.1430850000000000    0.4494610000000000 B
   0.6390980000000001    0.3958130000000000    0.7056900000000000 B
   0.1390980000000000    0.6041870000000000    0.7943100000000000 B
   0.6090290000000000    0.1430850000000000    0.9494610000000000 B
   0.8609019999999999    0.3958130000000000    0.2056900000000000 B
   0.9200900000000000    0.6279120000000000    0.9493310000000000 B
   0.4200900000000000    0.3720880000000000    0.5506690000000000 B
   0.5799100000000000    0.6279120000000000    0.4493310000000000 B
   0.0799100000000000    0.3720880000000000    0.0506690000000000 B
   0.4405800000000000    0.1440010000000000    0.7716310000000000 B
   0.9405800000000000    0.8559990000000000    0.7283690000000000 B
   0.5594200000000000    0.8559990000000000    0.2283690000000000 B
   0.0594200000000000    0.1440010000000000    0.2716310000000000 B
   0.5914380000000000    0.4267890000000000    0.7844620000000000 O
   0.5732600000000000    0.6009450000000000    0.3611250000000000 O
   0.9267400000000000    0.6009450000000000    0.8611250000000000 O
   0.4267400000000000    0.3990550000000000    0.6388750000000000 O
   0.2116340000000000    0.1407150000000000    0.7264570000000000 O
   0.7116340000000000    0.8592850000000000    0.7735430000000000 O
   0.7883660000000000    0.8592850000000000    0.2735430000000000 O
   0.2883660000000000    0.1407150000000000    0.2264570000000000 O
   0.9085620000000000    0.4267890000000000    0.2844620000000000 O
   0.0732600000000000    0.3990550000000000    0.1388750000000000 O
   0.4085620000000000    0.5732110000000000    0.2155380000000000 O
   0.0914380000000000    0.5732110000000000    0.7155380000000000 O
   0.1614260000000000    0.8732990000000000    0.7710040000000000 O
   0.6614260000000000    0.1267010000000000    0.7289960000000000 O
   0.8385740000000000    0.1267010000000000    0.2289960000000000 O
   0.3385740000000000    0.8732990000000000    0.2710040000000000 O
   0.1852680000000000    0.3767220000000000    0.5057820000000000 O
   0.6852680000000000    0.6232780000000000    0.9942180000000000 O
   0.8147320000000000    0.6232780000000000    0.4942180000000000 O
   0.3147320000000000    0.3767220000000000    0.0057820000000000 O
   0.0025650000000000    0.1427340000000000    0.5387790000000000 O
   0.5025650000000000    0.8572660000000000    0.9612210000000000 O
   0.9974350000000000    0.8572660000000000    0.4612210000000000 O
   0.4974350000000000    0.1427340000000000    0.0387790000000000 O
   0.6266960000000000    0.3629740000000000    0.1853310000000000 O
   0.1266960000000000    0.6370260000000000    0.3146690000000000 O
   0.3733040000000000    0.6370260000000000    0.8146690000000000 O
   0.8733040000000000    0.3629740000000000    0.6853310000000000 O
   0.6399390000000000    0.1281240000000000    0.4394960000000000 O
   0.1399390000000000    0.8718760000000000    0.0605040000000000 O
   0.3600610000000000    0.8718760000000000    0.5605040000000000 O
   0.8600610000000000    0.1281240000000000    0.9394960000000000 O
   0.6309520000000000    0.3406310000000000    0.5124830000000000 O
   0.1309520000000000    0.6593690000000000    0.9875170000000000 O
   0.4295990000000000    0.1578570000000000    0.8662280000000000 O
   0.8690480000000000    0.3406310000000000    0.0124830000000000 O
   0.0704010000000000    0.1578570000000000    0.3662280000000000 O
   0.5704010000000000    0.8421430000000000    0.1337720000000000 O
   0.9295990000000000    0.8421430000000000    0.6337720000000000 O
   0.3690480000000000    0.6593690000000000    0.4875170000000000 O
