Na4 Li4 Si4 B12 H4 O32
1.0
  14.0100719999999992    0.0000000000000000    0.0000000000000000
   0.0000000000000000    6.8341419999999999    0.0000000000000000
   0.0000000000000000    4.4002949999999998    6.4232360000000002
Na Li Si B H O
4 4 4 12 4 32
direct
   0.4918930000000000    0.9748880000000000    0.7434610000000000 Na
   0.0081070000000000    0.9748880000000000    0.2434610000000000 Na
   0.5081070000000000    0.0251120000000000    0.2565390000000000 Na
   0.9918930000000000    0.0251120000000000    0.7565390000000000 Na
   0.1990150000000000    0.5388340000000000    0.1267950000000000 Li
   0.8009849999999999    0.4611660000000000    0.8732050000000000 Li
   0.3009850000000000    0.5388340000000000    0.6267950000000000 Li
   0.6990150000000001    0.4611660000000000    0.3732050000000000 Li
   0.2473800000000000    0.0419690000000000    0.7908500000000001 Si
   0.7526200000000000    0.9580310000000000    0.2091500000000000 Si
   0.2526200000000000    0.0419690000000000    0.2908500000000000 Si
   0.7473800000000000    0.9580310000000000    0.7091499999999999 Si
   0.5070300000000000    0.4631870000000000    0.7841129999999999 B
   0.1527720000000000    0.7655250000000000    0.6832589999999999 B
   0.0070300000000000    0.5368130000000000    0.7158870000000001 B
   0.8490030000000000    0.6827650000000000    0.0843460000000000 B
   0.4929700000000000    0.5368130000000000    0.2158870000000000 B
   0.6527720000000000    0.2344750000000000    0.8167410000000001 B
   0.3490030000000000    0.3172350000000000    0.4156540000000000 B
   0.9929700000000000    0.4631870000000000    0.2841130000000000 B
   0.8472280000000000    0.2344750000000000    0.3167410000000000 B
   0.1509970000000000    0.3172350000000000    0.9156540000000000 B
   0.6509970000000000    0.6827650000000000    0.5843460000000000 B
   0.3472280000000000    0.7655250000000000    0.1832590000000000 B
   0.3876660000000000    0.3058850000000000    0.9438680000000000 H
   0.8876660000000000    0.6941150000000000    0.5561320000000000 H
   0.6123340000000000    0.6941150000000000    0.0561320000000000 H
   0.1123340000000000    0.3058850000000000    0.4438680000000000 H
   0.7848860000000000    0.7282290000000000    0.2095460000000000 O
   0.7774960000000000    0.1873570000000000    0.4796450000000000 O
   0.6542510000000000    0.0319650000000000    0.7921180000000000 O
   0.5476440000000000    0.6809300000000000    0.6452840000000000 O
   0.4523560000000000    0.3190700000000000    0.3547160000000000 O
   0.2225040000000000    0.8126430000000000    0.5203550000000000 O
   0.4103650000000000    0.4637180000000000    0.8306500000000000 O
   0.6750450000000000    0.4552540000000000    0.6202740000000000 O
   0.5896350000000000    0.5362820000000000    0.1693500000000000 O
   0.8411940000000000    0.8752540000000000    0.8612780000000000 O
   0.1542510000000000    0.9680350000000000    0.7078820000000000 O
   0.2151140000000000    0.2717710000000000    0.7904540000000000 O
   0.3411940000000000    0.1247460000000000    0.6387220000000000 O
   0.0532420000000000    0.7513550000000000    0.6184400000000000 O
   0.6588060000000000    0.8752540000000000    0.3612780000000000 O
   0.3457490000000000    0.9680350000000000    0.2078820000000000 O
   0.3249550000000000    0.5447460000000000    0.3797260000000000 O
   0.4467580000000000    0.7513550000000000    0.1184400000000000 O
   0.9523560000000000    0.6809300000000000    0.1452840000000000 O
   0.8457490000000000    0.0319650000000000    0.2921180000000000 O
   0.0476440000000000    0.3190700000000000    0.8547160000000000 O
   0.1588060000000000    0.1247460000000000    0.1387220000000000 O
   0.2848860000000000    0.2717710000000000    0.2904540000000000 O
   0.8249550000000000    0.4552540000000000    0.1202740000000000 O
   0.7225040000000000    0.1873570000000000    0.9796450000000000 O
   0.7151140000000000    0.7282290000000000    0.7095460000000000 O
   0.5532420000000000    0.2486450000000000    0.8815600000000000 O
   0.9103650000000000    0.5362820000000000    0.6693500000000000 O
   0.2774960000000000    0.8126430000000000    0.0203550000000000 O
   0.1750450000000000    0.5447460000000000    0.8797260000000000 O
   0.9467580000000000    0.2486450000000000    0.3815600000000000 O
   0.0896350000000000    0.4637180000000000    0.3306500000000000 O
