Li2 Mg1 B12 H16 O28
1.0
  -6.9929750000000004    0.0000000000000000    0.0000000000000000
   3.4199480000000002    8.6177240000000008    0.0000000000000000
  -0.1765650000000000   -3.0924749999999999   -9.0753319999999995
Li Mg B H O
2 1 12 16 28
direct
   0.2584900000000000    0.7650990000000000    0.2752030000000000 Li
   0.7415100000000000    0.2349010000000000    0.7247970000000000 Li
   0.0000000000000000    0.5000000000000000    0.5000000000000000 Mg
   0.1075820000000000    0.3959570000000000    0.1579940000000000 B
   0.8924180000000000    0.6040430000000000    0.8420060000000000 B
   0.4826920000000000    0.4528320000000000    0.1955410000000000 B
   0.5173080000000000    0.5471680000000000    0.8044590000000000 B
   0.2528970000000000    0.2964360000000000    0.3473830000000000 B
   0.7471030000000000    0.7035640000000000    0.6526170000000000 B
   0.0478440000000000    0.0111980000000000    0.3262310000000000 B
   0.9521560000000000    0.9888020000000000    0.6737690000000000 B
   0.8626310000000000    0.1651100000000000    0.2518060000000000 B
   0.1373690000000000    0.8348900000000000    0.7481940000000000 B
   0.7785740000000000    0.1948910000000000    0.0145830000000000 B
   0.2214260000000000    0.8051090000000000    0.9854170000000000 B
   0.6607960000000001    0.2737470000000000    0.3396670000000000 H
   0.3392040000000000    0.7262530000000000    0.6603329999999999 H
   0.9310860000000000    0.5280380000000000    0.2304680000000000 H
   0.0689140000000000    0.4719620000000000    0.7695320000000000 H
   0.3432970000000000    0.4694460000000000    0.5578450000000000 H
   0.6567030000000000    0.5305540000000000    0.4421550000000000 H
   0.5106370000000000    0.0541420000000000    0.8903850000000000 H
   0.4893630000000000    0.9458580000000000    0.1096150000000000 H
   0.9002490000000000    0.7775580000000000    0.3138820000000000 H
   0.0997510000000000    0.2224420000000000    0.6861180000000000 H
   0.6887840000000000    0.5494160000000000    0.0711510000000000 H
   0.3112160000000000    0.4505840000000000    0.9288490000000000 H
   0.5743880000000000    0.8494950000000000    0.4797580000000000 H
   0.4256120000000000    0.1505050000000000    0.5202420000000000 H
   0.6443830000000000    0.8989800000000000    0.3400050000000000 H
   0.3556170000000000    0.1010200000000000    0.6599950000000000 H
   0.7909310000000001    0.2712110000000000    0.3731800000000000 O
   0.2090690000000000    0.7287890000000000    0.6268200000000000 O
   0.0659080000000000    0.5334130000000000    0.2674500000000000 O
   0.9340920000000000    0.4665870000000000    0.7325500000000000 O
   0.2179820000000000    0.4034620000000000    0.4865130000000000 O
   0.7820180000000000    0.5965380000000000    0.5134870000000000 O
   0.2371220000000000    0.1384190000000000    0.3578080000000000 O
   0.7628779999999999    0.8615810000000000    0.6421920000000000 O
   0.8684860000000000    0.0236550000000000    0.2857230000000000 O
   0.1315140000000000    0.9763450000000000    0.7142770000000001 O
   0.0845090000000000    0.2656550000000000    0.2321190000000000 O
   0.9154910000000001    0.7343450000000000    0.7678810000000000 O
   0.3191540000000000    0.4521550000000000    0.1185240000000000 O
   0.6808460000000000    0.5478450000000000    0.8814760000000000 O
   0.4579140000000000    0.3802670000000000    0.3045560000000000 O
   0.5420860000000000    0.6197330000000000    0.6954440000000000 O
   0.7279920000000000    0.1121190000000000    0.1163060000000000 O
   0.2720080000000000    0.8878810000000000    0.8836940000000000 O
   0.9619030000000000    0.3229870000000000    0.0280220000000000 O
   0.0380970000000000    0.6770130000000000    0.9719780000000000 O
   0.6408750000000000    0.1471830000000000    0.8924020000000000 O
   0.3591250000000000    0.8528170000000000    0.1075980000000000 O
   0.0398120000000000    0.8627670000000000    0.3370510000000000 O
   0.9601880000000000    0.1372330000000000    0.6629490000000000 O
   0.6836460000000000    0.5266729999999999    0.1661200000000000 O
   0.3163540000000000    0.4733270000000000    0.8338800000000000 O
   0.5263170000000000    0.8270860000000000    0.3771090000000000 O
   0.4736830000000000    0.1729140000000000    0.6228910000000000 O
