ALGO = Fast
EDIFF = 0.0010500000000000002
ENCUT = 520
IBRION = 2
ISIF = 3
ISMEAR = -5
ISPIN = 2
LASPH = True
LMAXMIX = 6
LORBIT = 11
LREAL = Auto
LWAVE = False
MAGMOM = 1*0.001 1*0.011 1*0.155 1*0.005 1*0.066 2*0.017 2*0.162 1*0.01 2*0.014 3*-0.0 1*0.043 5*0.003
NELM = 100
NSW = 99
PREC = Accurate
SIGMA = 0.05
