ALGO = Fast
EDIFF = 0.0023
ENCUT = 520
IBRION = 2
ISIF = 3
ISMEAR = -5
ISPIN = 2
LASPH = True
LMAXMIX = 4
LORBIT = 11
LREAL = Auto
LWAVE = False
MAGMOM = 4*0.0 2*0.415 2*0.01 2*0.006 2*0.0 2*0.006 2*0.01 1*0.016 2*0.01 3*0.0 2*0.063 2*0.07 2*0.002 2*0.07 2*0.0 2*0.07 2*0.002 2*0.07 2*0.063 3*-0.0 2*0.01 1*0.016
NELM = 100
NSW = 99
PREC = Accurate
SIGMA = 0.05
