Li2 Er2 P8 O24
1.0
   3.5562800000000001    8.1814979999999995    0.0000000000000000
  -3.5562800000000001    8.1814979999999995    0.0000000000000000
   0.0000000000000000    5.6463400000000004    7.7957979999999996
Li Er P O
2 2 8 24
direct
   0.7065660000000000    0.2934340000000000    0.7500000000000000 Li
   0.2934340000000000    0.7065660000000000    0.2500000000000000 Li
   0.2032260000000000    0.7967740000000000    0.7500000000000000 Er
   0.7967740000000000    0.2032260000000000    0.2500000000000000 Er
   0.0035920000000000    0.7057940000000000    0.1931180000000000 P
   0.5864300000000000    0.6870200000000000    0.8837310000000000 P
   0.2942060000000000    0.9964080000000000    0.3068820000000000 P
   0.4135700000000000    0.3129800000000000    0.1162690000000000 P
   0.9964080000000000    0.2942060000000000    0.8068820000000000 P
   0.6870200000000000    0.5864300000000000    0.3837310000000000 P
   0.3129800000000000    0.4135700000000000    0.6162690000000000 P
   0.7057940000000000    0.0035920000000000    0.6931180000000000 P
   0.1512080000000000    0.9902190000000000    0.2752340000000000 O
   0.5635070000000000    0.5683220000000000    0.0720310000000000 O
   0.8228880000000000    0.6676910000000000    0.3482280000000000 O
   0.4364930000000000    0.4316780000000000    0.9279690000000000 O
   0.1766300000000000    0.6008640000000000    0.6843890000000000 O
   0.7569740000000000    0.9919040000000000    0.5219910000000000 O
   0.4316780000000000    0.4364930000000000    0.4279690000000000 O
   0.3323090000000000    0.1771120000000000    0.1517720000000000 O
   0.9919040000000000    0.7569740000000000    0.0219910000000000 O
   0.4724290000000000    0.2164720000000000    0.7340510000000000 O
   0.5275710000000000    0.7835280000000000    0.2659490000000000 O
   0.9902190000000000    0.1512080000000000    0.7752340000000000 O
   0.6676910000000000    0.8228880000000000    0.8482280000000000 O
   0.7835280000000000    0.5275710000000000    0.7659490000000000 O
   0.2430260000000000    0.0080960000000000    0.4780090000000000 O
   0.5683220000000000    0.5635070000000000    0.5720310000000000 O
   0.2164720000000000    0.4724290000000000    0.2340510000000000 O
   0.1771120000000000    0.3323090000000000    0.6517720000000000 O
   0.8233700000000000    0.3991360000000000    0.3156110000000000 O
   0.8487920000000000    0.0097810000000000    0.7247660000000000 O
   0.0080960000000000    0.2430260000000000    0.9780090000000000 O
   0.0097810000000000    0.8487920000000000    0.2247660000000000 O
   0.6008640000000000    0.1766300000000000    0.1843890000000000 O
   0.3991360000000000    0.8233700000000000    0.8156110000000000 O
