Li4 B8 Sb4 O20
1.0
   5.4215059999999999    5.1092480000000000    0.0000000000000000
  -5.4215059999999999    5.1092480000000000    0.0000000000000000
   0.0000000000000000    4.7987900000000003    8.9414590000000000
Li B Sb O
4 8 4 20
direct
   0.8637010000000001    0.1362990000000000    0.2500000000000000 Li
   0.3779910000000000    0.6220090000000000    0.2500000000000000 Li
   0.6220090000000000    0.3779910000000000    0.7500000000000000 Li
   0.1362990000000000    0.8637010000000001    0.7500000000000000 Li
   0.7973430000000000    0.7454690000000000    0.3946740000000000 B
   0.7359290000000001    0.3779430000000000    0.4893060000000000 B
   0.7454690000000000    0.7973430000000000    0.8946740000000000 B
   0.3779430000000000    0.7359290000000001    0.9893060000000000 B
   0.6220570000000000    0.2640710000000000    0.0106940000000000 B
   0.2545310000000000    0.2026570000000000    0.1053260000000000 B
   0.2640710000000000    0.6220570000000000    0.5106940000000000 B
   0.2026570000000000    0.2545310000000000    0.6053260000000000 B
   0.9398630000000000    0.5922460000000001    0.1382040000000000 Sb
   0.5922460000000001    0.9398630000000000    0.6382040000000000 Sb
   0.4077540000000000    0.0601370000000000    0.3617960000000000 Sb
   0.0601370000000000    0.4077540000000000    0.8617960000000000 Sb
   0.7911710000000000    0.9044759999999999    0.4317250000000000 O
   0.8548559999999999    0.7716920000000000    0.2441880000000000 O
   0.9044759999999999    0.7911710000000000    0.9317250000000000 O
   0.8044500000000000    0.3548240000000000    0.3557930000000000 O
   0.3453070000000000    0.7756130000000000    0.3744440000000000 O
   0.7716920000000000    0.8548559999999999    0.7441880000000000 O
   0.5579330000000000    0.7372919999999999    0.0086340000000000 O
   0.2627080000000000    0.4420670000000000    0.4913660000000000 O
   0.3548240000000000    0.8044500000000000    0.8557930000000000 O
   0.7756130000000000    0.3453070000000000    0.8744440000000000 O
   0.2243870000000000    0.6546930000000000    0.1255560000000000 O
   0.6451760000000000    0.1955500000000000    0.1442070000000000 O
   0.7372919999999999    0.5579330000000000    0.5086340000000000 O
   0.4420670000000000    0.2627080000000000    0.9913660000000000 O
   0.2283080000000000    0.1451440000000000    0.2558120000000000 O
   0.6546930000000000    0.2243870000000000    0.6255560000000000 O
   0.1955500000000000    0.6451760000000000    0.6442070000000000 O
   0.0955240000000000    0.2088290000000000    0.0682750000000000 O
   0.1451440000000000    0.2283080000000000    0.7558120000000000 O
   0.2088290000000000    0.0955240000000000    0.5682750000000000 O
