Li4 Bi2 P10 O30
1.0
   5.9766430000000001    3.8712890000000000    0.0000000000000000
  -5.9766430000000001    3.8712890000000000    0.0000000000000000
   0.0000000000000000    0.8096560000000000   13.3834499999999998
Li Bi P O
4 2 10 30
direct
   0.6855550000000000    0.2824670000000000    0.7232580000000000 Li
   0.2824670000000000    0.6855550000000000    0.2232580000000000 Li
   0.2367860000000000    0.2779230000000000    0.5957860000000000 Li
   0.2779230000000000    0.2367860000000000    0.0957860000000000 Li
   0.1076860000000000    0.8787050000000000    0.7600710000000001 Bi
   0.8787050000000000    0.1076860000000000    0.2600710000000000 Bi
   0.3716700000000000    0.9745509999999999    0.5036000000000000 P
   0.7306020000000000    0.5999190000000000    0.5640430000000000 P
   0.5873740000000000    0.8471660000000000    0.8492650000000000 P
   0.9745509999999999    0.3716700000000000    0.0036000000000000 P
   0.5999190000000000    0.7306020000000000    0.0640430000000000 P
   0.8471660000000000    0.5873740000000000    0.3492650000000000 P
   0.8206300000000000    0.0661270000000000    0.5282140000000000 P
   0.0661270000000000    0.8206300000000000    0.0282140000000000 P
   0.2385170000000000    0.4408300000000000    0.8182030000000000 P
   0.4408300000000000    0.2385170000000000    0.3182030000000000 P
   0.8115180000000000    0.9080780000000001    0.8230480000000000 O
   0.9080780000000001    0.8115180000000000    0.3230480000000000 O
   0.8494740000000000    0.5998220000000000    0.6555640000000000 O
   0.5998220000000000    0.8494740000000000    0.1555640000000000 O
   0.7536720000000000    0.8243279999999999    0.5300120000000000 O
   0.8243279999999999    0.7536720000000000    0.0300120000000000 O
   0.5469530000000000    0.8467590000000000    0.9683240000000000 O
   0.8467590000000000    0.5469530000000000    0.4683240000000000 O
   0.4923180000000000    0.9733880000000000    0.7938580000000000 O
   0.9733880000000000    0.4923180000000000    0.2938580000000000 O
   0.7837670000000000    0.3316050000000000    0.9520980000000000 O
   0.3316050000000000    0.7837670000000000    0.4520980000000000 O
   0.1556790000000000    0.9193660000000000    0.9266780000000000 O
   0.5094140000000000    0.4579550000000000    0.5737970000000000 O
   0.9193660000000000    0.1556790000000000    0.4266780000000000 O
   0.4733640000000000    0.6042480000000000    0.8279710000000000 O
   0.4579550000000000    0.5094140000000000    0.0737970000000000 O
   0.6042480000000000    0.4733640000000000    0.3279710000000000 O
   0.9395880000000000    0.1634220000000000    0.6162100000000000 O
   0.1634220000000000    0.9395880000000000    0.1162100000000000 O
   0.6041720000000000    0.0837660000000000    0.5429420000000000 O
   0.0837660000000000    0.6041720000000000    0.0429420000000000 O
   0.1148250000000000    0.5523590000000000    0.7773840000000000 O
   0.5523590000000000    0.1148250000000000    0.2773840000000000 O
   0.1580090000000000    0.3594910000000000    0.9304530000000000 O
   0.3594910000000000    0.1580090000000000    0.4304530000000000 O
   0.2529940000000000    0.2675600000000000    0.7614350000000000 O
   0.2675600000000000    0.2529940000000000    0.2614350000000000 O
   0.2426340000000000    0.9877440000000000    0.5935870000000000 O
   0.9877440000000000    0.2426340000000000    0.0935870000000000 O
