ALGO = Fast
EDIFF = 0.0013000000000000002
ENCUT = 520
IBRION = 2
ISIF = 3
ISMEAR = -5
ISPIN = 2
LASPH = True
LMAXMIX = 4
LORBIT = 11
LREAL = Auto
LWAVE = False
MAGMOM = 6*-0.003 4*-0.009 4*0.019 4*0.089 4*0.275 4*0.047
NELM = 100
NSW = 99
PREC = Accurate
SIGMA = 0.05
