pymatgen with grid density = 1167 / number of atoms
0
Monkhorst
2 4 2
