Cs1 Na3 Li12 Ge4 O16
1.0
  -5.6657419999999998    5.6657419999999998    3.2807019999999998
   5.6657419999999998   -5.6657419999999998    3.2807019999999998
   5.6657419999999998    5.6657419999999998   -3.2807019999999998
Cs Na Li Ge O
1 3 12 4 16
direct
   0.0000000000000000    0.0000000000000000    0.0000000000000000 Cs
   0.2500000000000000    0.7500000000000000    0.5000000000000000 Na
   0.7500000000000000    0.2500000000000000    0.5000000000000000 Na
   0.5000000000000000    0.5000000000000000    0.0000000000000000 Na
   0.2844660000000000    0.0774880000000000    0.3619540000000000 Li
   0.9225120000000000    0.2844660000000000    0.2069780000000000 Li
   0.0774880000000000    0.7155340000000000    0.7930220000000000 Li
   0.7155340000000000    0.9225120000000000    0.6380460000000000 Li
   0.9778390000000000    0.6424860000000000    0.1313860000000000 Li
   0.8464540000000000    0.9778390000000000    0.3353530000000000 Li
   0.6424860000000000    0.5111010000000000    0.6646470000000000 Li
   0.5111010000000000    0.8464540000000000    0.8686140000000000 Li
   0.3575140000000000    0.4888990000000000    0.3353530000000000 Li
   0.4888990000000000    0.1535460000000000    0.1313860000000000 Li
   0.0221610000000000    0.3575140000000000    0.8686140000000000 Li
   0.1535460000000000    0.0221610000000000    0.6646470000000000 Li
   0.7811320000000000    0.5804400000000000    0.3615720000000000 Ge
   0.4195600000000000    0.7811320000000000    0.2006930000000000 Ge
   0.5804400000000000    0.2188680000000000    0.7993070000000000 Ge
   0.2188680000000000    0.4195600000000000    0.6384280000000000 Ge
   0.5676610000000000    0.8385260000000000    0.4061870000000000 O
   0.9018380000000000    0.6799150000000000    0.5817530000000000 O
   0.6799150000000000    0.0981620000000000    0.7780770000000000 O
   0.0981620000000000    0.3200850000000000    0.4182470000000000 O
   0.1870050000000000    0.4685070000000000    0.1058360000000000 O
   0.0811690000000000    0.1870050000000000    0.7184980000000000 O
   0.4685070000000000    0.3626710000000000    0.2815020000000000 O
   0.3626710000000000    0.0811690000000000    0.8941640000000000 O
   0.8129950000000000    0.5314930000000000    0.8941640000000000 O
   0.9188310000000000    0.8129950000000000    0.2815020000000000 O
   0.5314930000000000    0.6373290000000000    0.7184980000000000 O
   0.6373290000000000    0.9188310000000000    0.1058360000000000 O
   0.8385260000000000    0.4323390000000000    0.2708650000000000 O
   0.4323390000000000    0.1614740000000000    0.5938130000000000 O
   0.3200850000000000    0.9018380000000000    0.2219230000000000 O
   0.1614740000000000    0.5676610000000000    0.7291350000000000 O
