ALGO = Fast
EDIFF = 0.0048000000000000004
ENCUT = 520
IBRION = 2
ISIF = 3
ISMEAR = -5
ISPIN = 2
LASPH = True
LMAXMIX = 4
LORBIT = 11
LREAL = Auto
LWAVE = False
MAGMOM = 6*0.003 6*0.067 12*0.002 6*-0.003 6*0.042 6*1.156 6*0.184 6*0.018 6*0.887 6*0.006 6*0.097 6*0.688 6*0.04 6*0.013 6*0.11
NELM = 100
NSW = 99
PREC = Accurate
SIGMA = 0.05
