Li6 Zn6 B6 P12 O66
1.0
   4.8244439999999997   -8.3561820000000004    0.0000000000000000
   4.8244439999999997    8.3561820000000004    0.0000000000000000
   0.0000000000000000    0.0000000000000000   15.4019490000000001
Li Zn B P O
6 6 6 12 66
direct
   0.6978569999999999    0.8883820000000000    0.5422230000000000 Li
   0.1905250000000000    0.3021430000000000    0.2088900000000000 Li
   0.3021430000000000    0.1116180000000000    0.0422230000000000 Li
   0.1116180000000000    0.8094749999999999    0.8755560000000000 Li
   0.8094749999999999    0.6978569999999999    0.7088900000000000 Li
   0.8883820000000000    0.1905250000000000    0.3755560000000000 Li
   0.9366280000000000    0.4709360000000000    0.4582150000000000 Zn
   0.5343070000000000    0.0633720000000000    0.1248820000000000 Zn
   0.0633720000000000    0.5290640000000000    0.9582150000000000 Zn
   0.5290640000000000    0.4656930000000000    0.7915489999999999 Zn
   0.4656930000000000    0.9366280000000000    0.6248820000000000 Zn
   0.4709360000000000    0.5343070000000000    0.2915490000000000 Zn
   0.6823930000000000    0.8458220000000000    0.9601520000000000 B
   0.1634290000000000    0.3176070000000000    0.6268190000000000 B
   0.3176070000000000    0.1541780000000000    0.4601520000000000 B
   0.1541780000000000    0.8365710000000000    0.2934860000000000 B
   0.8365710000000000    0.6823930000000000    0.1268190000000000 B
   0.8458220000000000    0.1634290000000000    0.7934860000000000 B
   0.7720630000000001    0.1662340000000000    0.9648530000000000 P
   0.3941720000000000    0.2279370000000000    0.6315200000000000 P
   0.2279370000000000    0.8337660000000000    0.4648530000000000 P
   0.8337660000000000    0.6058280000000000    0.2981860000000000 P
   0.6058280000000000    0.7720630000000001    0.1315200000000000 P
   0.1662340000000000    0.3941720000000000    0.7981860000000000 P
   0.6152760000000000    0.8462030000000000    0.7863770000000000 P
   0.2309280000000000    0.3847240000000000    0.4530430000000000 P
   0.3847240000000000    0.1537970000000000    0.2863770000000000 P
   0.1537970000000000    0.7690720000000000    0.1197100000000000 P
   0.7690720000000000    0.6152760000000000    0.9530430000000000 P
   0.8462030000000000    0.2309280000000000    0.6197100000000000 P
   0.9247480000000000    0.3101910000000000    0.9987070000000000 O
   0.3854430000000000    0.0752520000000000    0.6653740000000000 O
   0.0752520000000000    0.6898090000000000    0.4987070000000000 O
   0.6898090000000000    0.6145570000000000    0.3320410000000000 O
   0.6145570000000000    0.9247480000000000    0.1653740000000000 O
   0.3101910000000000    0.3854430000000000    0.8320410000000000 O
   0.5081760000000000    0.7415340000000000    0.6113570000000000 O
   0.2333590000000000    0.4918240000000000    0.2780240000000000 O
   0.4918240000000000    0.2584660000000000    0.1113570000000000 O
   0.2584660000000000    0.7666410000000000    0.9446900000000000 O
   0.7666410000000000    0.5081760000000000    0.7780240000000000 O
   0.7415340000000000    0.2333590000000000    0.4446900000000000 O
   0.4836940000000000    0.8702380000000000    0.7452029999999999 O
   0.3865450000000000    0.5163060000000000    0.4118700000000000 O
   0.5163060000000000    0.1297620000000000    0.2452030000000000 O
   0.1297620000000000    0.6134550000000000    0.0785370000000000 O
   0.6134550000000000    0.4836940000000000    0.9118700000000000 O
   0.8702380000000000    0.3865450000000000    0.5785370000000000 O
   0.7528950000000000    0.1794840000000000    0.8646430000000001 O
   0.4265900000000000    0.2471050000000000    0.5313099999999999 O
   0.2471050000000000    0.8205160000000000    0.3646430000000000 O
   0.8205160000000000    0.5734100000000000    0.1979770000000000 O
   0.5734100000000000    0.7528950000000000    0.0313100000000000 O
   0.1794840000000000    0.4265900000000000    0.6979770000000000 O
   0.2634230000000000    0.3958480000000000    0.0178470000000000 O
   0.1324250000000000    0.7365770000000000    0.6845140000000000 O
   0.7365770000000000    0.6041520000000000    0.5178469999999999 O
   0.6041520000000000    0.8675750000000000    0.3511800000000000 O
   0.8675750000000000    0.2634230000000000    0.1845140000000000 O
   0.3958480000000000    0.1324250000000000    0.8511800000000000 O
   0.7867980000000000    0.9924560000000000    0.7709120000000000 O
   0.2056580000000000    0.2132020000000000    0.4375790000000000 O
   0.2132020000000000    0.0075440000000000    0.2709120000000000 O
   0.0075440000000000    0.7943420000000000    0.1042460000000000 O
   0.7943420000000000    0.7867980000000000    0.9375790000000001 O
   0.9924560000000000    0.2056580000000000    0.6042459999999999 O
   0.6180420000000000    0.1436270000000000    0.0076780000000000 O
   0.5255840000000001    0.3819580000000000    0.6743450000000000 O
   0.3819580000000000    0.8563730000000001    0.5076780000000000 O
   0.8563730000000001    0.4744160000000000    0.3410110000000000 O
   0.4744160000000000    0.6180420000000000    0.1743450000000000 O
   0.1436270000000000    0.5255840000000001    0.8410110000000000 O
   0.7258960000000000    0.9259800000000000    0.3969360000000000 O
   0.2000840000000000    0.2741040000000000    0.0636030000000000 O
   0.2741040000000000    0.0740200000000000    0.8969360000000000 O
   0.0740200000000000    0.7999160000000000    0.7302689999999999 O
   0.7999160000000000    0.7258960000000000    0.5636030000000000 O
   0.9259800000000000    0.2000840000000000    0.2302690000000000 O
   0.5766390000000000    0.8215490000000000    0.8847750000000000 O
   0.2449100000000000    0.4233610000000000    0.5514410000000000 O
   0.4233610000000000    0.1784510000000000    0.3847750000000000 O
   0.1784510000000000    0.7550900000000000    0.2181080000000000 O
   0.7550900000000000    0.5766390000000000    0.0514410000000000 O
   0.8215490000000000    0.2449100000000000    0.7181080000000000 O
   0.7886420000000000    0.0147010000000000    0.9824670000000000 O
   0.2260600000000000    0.2113580000000000    0.6491340000000000 O
   0.2113580000000000    0.9852990000000000    0.4824670000000000 O
   0.9852990000000000    0.7739400000000000    0.3158010000000000 O
   0.7739400000000000    0.7886420000000000    0.1491340000000000 O
   0.0147010000000000    0.2260600000000000    0.8158010000000000 O
   0.6250790000000001    0.7030610000000000    0.7478440000000000 O
   0.0779820000000000    0.3749210000000000    0.4145100000000000 O
   0.3749210000000000    0.2969390000000000    0.2478440000000000 O
   0.2969390000000000    0.9220180000000000    0.0811770000000000 O
   0.9220180000000000    0.6250790000000001    0.9145100000000000 O
   0.7030610000000000    0.0779820000000000    0.5811770000000001 O
