Li1 Zn1 Sb4 O8
1.0
   3.2692909999999999    0.0762790000000000    0.9904160000000000
   1.8360420000000000    6.3395440000000001    2.7177380000000002
   0.5718299999999999    1.2200000000000000   10.6633200000000006
Li Zn Sb O
1 1 4 8
direct
   0.6276610000000000    0.0049820000000000    0.7513660000000000 Li
   0.1869440000000000    0.1293910000000000    0.2007850000000000 Zn
   0.5572070000000000    0.3219220000000000    0.4436420000000000 Sb
   0.0919110000000000    0.7322730000000000    0.1271730000000000 Sb
   0.8460580000000000    0.3535810000000000    0.9048720000000000 Sb
   0.4477080000000000    0.8005230000000000    0.5673780000000000 Sb
   0.8340510000000000    0.6987060000000000    0.7212490000000000 O
   0.4628380000000000    0.2268160000000000    0.8309170000000000 O
   0.4750720000000000    0.7244520000000000    0.2443780000000000 O
   0.1864990000000000    0.3937960000000000    0.2972260000000000 O
   0.1822200000000000    0.0666550000000000    0.6132020000000000 O
   0.8211920000000000    0.0657490000000000    0.1152450000000000 O
   0.8860730000000000    0.0364000000000000    0.4105520000000000 O
   0.1060660000000000    0.4353920000000000    0.0120580000000000 O
