Li6 B2 P4 O16
1.0
   5.2498160000000000    0.0000000000000000    0.0000000000000000
  -0.0095600000000000    7.5002730000000000    0.0000000000000000
  -2.1226550000000000   -1.5187340000000000    7.3838390000000000
Li B P O
6 2 4 16
direct
   0.2214370000000000    0.8686240000000000    0.6914940000000001 Li
   0.7785630000000000    0.1313760000000000    0.3085060000000000 Li
   0.3282230000000000    0.5162900000000000    0.8543020000000000 Li
   0.6717770000000000    0.4837100000000000    0.1456980000000000 Li
   0.8588670000000000    0.4738480000000000    0.6111340000000000 Li
   0.1411330000000000    0.5261520000000000    0.3888660000000000 Li
   0.7419790000000001    0.0380240000000000    0.7684680000000000 B
   0.2580210000000000    0.9619760000000001    0.2315320000000000 B
   0.6272500000000000    0.7852050000000000    0.4524650000000000 P
   0.3727500000000000    0.2147950000000000    0.5475350000000000 P
   0.8823860000000000    0.7493230000000000    0.9443750000000000 P
   0.1176140000000000    0.2506770000000000    0.0556250000000000 P
   0.9453589999999999    0.1848310000000000    0.8536200000000000 O
   0.0546410000000000    0.8151690000000000    0.1463800000000000 O
   0.5269400000000000    0.8883670000000000    0.2883840000000000 O
   0.4730600000000000    0.1116330000000000    0.7116160000000000 O
   0.0569620000000000    0.6931720000000000    0.8161610000000000 O
   0.9430380000000000    0.3068280000000000    0.1838390000000000 O
   0.7959750000000000    0.6307350000000000    0.3991850000000000 O
   0.2040250000000000    0.3692650000000000    0.6008150000000000 O
   0.7161470000000000    0.9168410000000000    0.8908070000000000 O
   0.2838530000000000    0.0831590000000000    0.1091930000000000 O
   0.6931810000000000    0.5965920000000000    0.9433600000000000 O
   0.3068190000000000    0.4034080000000000    0.0566400000000000 O
   0.8186240000000000    0.9355400000000000    0.6068400000000000 O
   0.1813760000000000    0.0644600000000000    0.3931600000000000 O
   0.3985450000000000    0.7250540000000000    0.5161340000000000 O
   0.6014550000000000    0.2749460000000000    0.4838660000000000 O
