Li24 Bi4 B12 O36
1.0
  16.7311300000000003    0.0000000000000000    0.0000000000000000
   0.0000000000000000    6.8000670000000003    0.0000000000000000
   0.0000000000000000    1.9772110000000001    7.0850679999999997
Li Bi B O
24 4 12 36
direct
   0.0016210000000000    0.3226110000000000    0.0711780000000000 Li
   0.4493710000000000    0.4222610000000000    0.1439580000000000 Li
   0.4983790000000000    0.8226110000000000    0.0711780000000000 Li
   0.5362450000000000    0.0549490000000000    0.3041000000000000 Li
   0.0506290000000000    0.9222610000000000    0.1439580000000000 Li
   0.2936510000000000    0.3682550000000000    0.2880090000000000 Li
   0.9637550000000000    0.5549490000000000    0.3041000000000000 Li
   0.7045310000000000    0.0526350000000000    0.4346440000000000 Li
   0.0304130000000000    0.1689310000000000    0.4557500000000000 Li
   0.2063490000000000    0.8682550000000000    0.2880090000000000 Li
   0.7954690000000000    0.5526350000000000    0.4346440000000000 Li
   0.4695870000000000    0.6689310000000001    0.4557500000000000 Li
   0.5304130000000000    0.3310690000000000    0.5442500000000000 Li
   0.2045310000000000    0.4473650000000000    0.5653560000000000 Li
   0.7936510000000000    0.1317450000000000    0.7119910000000000 Li
   0.9695870000000000    0.8310689999999999    0.5442500000000000 Li
   0.2954690000000000    0.9473650000000000    0.5653560000000000 Li
   0.0362450000000000    0.4450510000000000    0.6959000000000000 Li
   0.7063490000000000    0.6317450000000000    0.7119910000000000 Li
   0.9493710000000000    0.0777390000000000    0.8560420000000000 Li
   0.4637550000000000    0.9450510000000000    0.6959000000000000 Li
   0.5016210000000000    0.1773890000000000    0.9288220000000000 Li
   0.5506290000000000    0.5777390000000000    0.8560420000000000 Li
   0.9983790000000000    0.6773890000000000    0.9288220000000000 Li
   0.8132940000000000    0.3461940000000000    0.0753200000000000 Bi
   0.6867060000000000    0.8461940000000000    0.0753200000000000 Bi
   0.3132940000000000    0.1538060000000000    0.9246799999999999 Bi
   0.1867060000000000    0.6538060000000000    0.9246799999999999 Bi
   0.6330360000000000    0.3404910000000000    0.0797940000000000 B
   0.8669640000000000    0.8404910000000000    0.0797940000000000 B
   0.1180390000000000    0.4939690000000000    0.2948680000000000 B
   0.8865970000000000    0.1836650000000000    0.4423230000000000 B
   0.3819610000000000    0.9939690000000000    0.2948680000000000 B
   0.6134030000000000    0.6836650000000000    0.4423230000000000 B
   0.3865970000000000    0.3163350000000000    0.5576770000000000 B
   0.6180390000000000    0.0060310000000000    0.7051320000000000 B
   0.1134030000000000    0.8163350000000000    0.5576770000000000 B
   0.8819610000000000    0.5060310000000000    0.7051320000000000 B
   0.1330360000000000    0.1595090000000000    0.9202060000000000 B
   0.3669640000000000    0.6595090000000000    0.9202060000000000 B
   0.3308830000000000    0.4719800000000000    0.0091420000000000 O
   0.4293670000000000    0.0324610000000000    0.1313180000000000 O
   0.5514300000000000    0.3228100000000000    0.0845820000000000 O
   0.6827299999999999    0.1733260000000000    0.1533080000000000 O
   0.1691170000000000    0.9719800000000000    0.0091420000000000 O
   0.0706330000000000    0.5324610000000000    0.1313180000000000 O
   0.3012950000000000    0.0492320000000000    0.2707120000000000 O
   0.9485700000000000    0.8228100000000000    0.0845820000000000 O
   0.8172700000000001    0.6733260000000000    0.1533080000000000 O
   0.9334980000000000    0.2645550000000000    0.2809220000000000 O
   0.1987050000000000    0.5492320000000001    0.2707120000000000 O
   0.5665020000000000    0.7645550000000000    0.2809220000000000 O
   0.8050110000000000    0.2227760000000000    0.4278360000000000 O
   0.4234980000000000    0.4289370000000000    0.3951890000000000 O
   0.5863140000000000    0.0912090000000000    0.5299199999999999 O
   0.0863140000000000    0.4087910000000000    0.4700800000000000 O
   0.6949890000000000    0.7227760000000000    0.4278360000000000 O
   0.9234980000000000    0.0710630000000000    0.6048110000000000 O
   0.0765020000000000    0.9289370000000000    0.3951890000000000 O
   0.3050110000000000    0.2772240000000000    0.5721640000000000 O
   0.9136860000000000    0.5912090000000000    0.5299199999999999 O
   0.4136860000000000    0.9087910000000000    0.4700800000000000 O
   0.5765020000000000    0.5710630000000000    0.6048110000000000 O
   0.1949890000000000    0.7772240000000000    0.5721640000000000 O
   0.4334980000000000    0.2354450000000000    0.7190780000000000 O
   0.8012950000000000    0.4507680000000000    0.7292880000000000 O
   0.0665020000000000    0.7354450000000000    0.7190780000000000 O
   0.1827300000000000    0.3266740000000000    0.8466920000000000 O
   0.0514300000000000    0.1771900000000000    0.9154180000000000 O
   0.6987050000000000    0.9507679999999999    0.7292880000000000 O
   0.9293670000000001    0.4675390000000000    0.8686820000000000 O
   0.8308830000000000    0.0280200000000000    0.9908580000000000 O
   0.3172700000000000    0.8266740000000000    0.8466920000000000 O
   0.4485700000000000    0.6771900000000000    0.9154180000000000 O
   0.5706329999999999    0.9675390000000000    0.8686820000000000 O
   0.6691170000000000    0.5280200000000000    0.9908580000000000 O
