pymatgen with grid density = 780 / number of atoms
0
Gamma
6 4 3
