Ba2 Li1 Zn2 S2 O2
1.0
   3.9380549999999999    0.0307410000000000   -0.6566260000000000
  -0.1650180000000000    6.1653149999999997   -0.5551660000000000
   1.2250380000000001   -0.6534020000000000    7.4042859999999999
Ba Li Zn S O
2 1 2 2 2
direct
   0.5825669999999999    0.2690770000000000    0.1891100000000000 Ba
   0.5829900000000000    0.6731130000000000    0.8163970000000000 Ba
   0.5794880000000000    0.1187340000000000    0.5698740000000000 Li
   0.0860360000000000    0.7676320000000000    0.1858430000000000 Zn
   0.0762530000000000    0.1903710000000000    0.8307260000000000 Zn
   0.5874720000000000    0.7956390000000000    0.3502880000000000 S
   0.0830240000000000    0.3297660000000000    0.5565870000000001 S
   0.0833840000000000    0.4731860000000000    0.0164070000000000 O
   0.0887850000000000    0.9658160000000000    0.9940280000000000 O
