Sr2 Li2 Pr2 Te2 O12
1.0
   0.0000000000000000   -5.7961869999999998    0.0000000000000000
  -5.6527900000000004    0.0000000000000000    0.0204530000000000
   0.0012660000000000    0.0000000000000000   -7.9832310000000000
Sr Li Pr Te O
2 2 2 2 12
direct
   0.9617960000000000    0.0060690000000000    0.7522160000000000 Sr
   0.5382040000000000    0.5060690000000000    0.2522160000000000 Sr
   0.5102870000000000    0.9982380000000000    0.5002200000000000 Li
   0.9897130000000000    0.4982380000000000    0.0002200000000000 Li
   0.0563090000000000    0.9891970000000000    0.2539810000000000 Pr
   0.4436910000000000    0.4891970000000000    0.7539810000000000 Pr
   0.9949510000000000    0.5001500000000000    0.4995040000000000 Te
   0.5050490000000000    0.0001500000000000    0.9995039999999999 Te
   0.8110579999999999    0.7825120000000000    0.4560850000000000 O
   0.6889420000000001    0.2825120000000000    0.9560850000000000 O
   0.1970390000000000    0.2271600000000000    0.5333639999999999 O
   0.3029610000000000    0.7271600000000000    0.0333640000000000 O
   0.2661080000000000    0.7001810000000001    0.4586420000000000 O
   0.2338920000000000    0.2001810000000000    0.9586420000000000 O
   0.7144380000000000    0.3199560000000000    0.5447170000000000 O
   0.7855620000000000    0.8199560000000000    0.0447170000000000 O
   0.5203170000000000    0.9111740000000000    0.7624550000000000 O
   0.9796830000000000    0.4111740000000000    0.2624540000000000 O
   0.4734530000000000    0.0653640000000000    0.2388160000000000 O
   0.0265470000000000    0.5653640000000000    0.7388160000000000 O
