Li8 Si8 Bi8 O32
1.0
   5.0340059999999998    0.0000000000000000    0.0000000000000000
   0.0000000000000000    7.9626630000000000    0.0000000000000000
   0.0000000000000000    0.0000000000000000   18.3467400000000005
Li Si Bi O
8 8 8 32
direct
   0.7205850000000000    0.0161370000000000    0.4412840000000000 Li
   0.2326480000000000    0.1761870000000000    0.8548200000000000 Li
   0.7326480000000000    0.3238130000000000    0.3548200000000000 Li
   0.2205850000000000    0.4838630000000000    0.9412840000000000 Li
   0.7205850000000000    0.5161370000000000    0.0587160000000000 Li
   0.2326480000000000    0.6761870000000000    0.6451800000000000 Li
   0.7326480000000000    0.8238130000000000    0.1451800000000000 Li
   0.2205850000000000    0.9838630000000000    0.5587160000000000 Li
   0.7155010000000001    0.2192230000000000    0.1804220000000000 Si
   0.2241410000000000    0.2436520000000000    0.4309080000000000 Si
   0.7241410000000000    0.2563480000000000    0.9309080000000000 Si
   0.2155010000000000    0.2807770000000000    0.6804220000000000 Si
   0.7155010000000001    0.7192229999999999    0.3195780000000000 Si
   0.2241410000000000    0.7436520000000000    0.0690920000000000 Si
   0.7241410000000000    0.7563480000000000    0.5690920000000000 Si
   0.2155010000000000    0.7807770000000001    0.8195780000000000 Si
   0.2770390000000000    0.0441590000000000    0.2651990000000000 Bi
   0.3054330000000000    0.1857560000000000    0.0483000000000000 Bi
   0.8054330000000000    0.3142440000000000    0.5483000000000000 Bi
   0.7770390000000000    0.4558410000000000    0.7651990000000000 Bi
   0.2770390000000000    0.5441589999999999    0.2348010000000000 Bi
   0.3054330000000000    0.6857560000000000    0.4517000000000000 Bi
   0.8054330000000000    0.8142440000000000    0.9517000000000000 Bi
   0.7770390000000000    0.9558410000000001    0.7348010000000000 Bi
   0.5652930000000000    0.0522240000000000    0.1452010000000000 O
   0.0608130000000000    0.1035910000000000    0.4786540000000000 O
   0.6015430000000000    0.0767310000000000    0.9665360000000000 O
   0.0975520000000000    0.1143870000000000    0.6394760000000000 O
   0.0415390000000000    0.2045770000000000    0.1804390000000000 O
   0.5445030000000000    0.2365040000000000    0.4411690000000000 O
   0.6038030000000000    0.2199080000000000    0.2657010000000000 O
   0.1253250000000000    0.2332350000000000    0.3451140000000000 O
   0.6253250000000000    0.2667650000000000    0.8451140000000000 O
   0.1038030000000000    0.2800920000000000    0.7657010000000000 O
   0.0445030000000000    0.2634960000000000    0.9411690000000000 O
   0.5415390000000000    0.2954230000000000    0.6804390000000000 O
   0.5975520000000000    0.3856130000000000    0.1394760000000000 O
   0.1015430000000000    0.4232690000000000    0.4665360000000000 O
   0.5608130000000000    0.3964090000000000    0.9786540000000000 O
   0.0652930000000000    0.4477760000000000    0.6452010000000000 O
   0.5652930000000000    0.5522240000000000    0.3547990000000000 O
   0.0608130000000000    0.6035910000000000    0.0213460000000000 O
   0.6015430000000000    0.5767310000000000    0.5334640000000000 O
   0.0975520000000000    0.6143870000000000    0.8605240000000000 O
   0.0415390000000000    0.7045770000000000    0.3195610000000000 O
   0.5445030000000000    0.7365040000000000    0.0588310000000000 O
   0.6038030000000000    0.7199080000000000    0.2342990000000000 O
   0.1253250000000000    0.7332350000000000    0.1548860000000000 O
   0.6253250000000000    0.7667650000000000    0.6548860000000000 O
   0.1038030000000000    0.7800920000000000    0.7342990000000000 O
   0.0445030000000000    0.7634960000000000    0.5588310000000000 O
   0.5415390000000000    0.7954230000000000    0.8195610000000000 O
   0.5975520000000000    0.8856130000000000    0.3605240000000000 O
   0.1015430000000000    0.9232690000000000    0.0334640000000000 O
   0.5608130000000000    0.8964090000000000    0.5213460000000000 O
   0.0652930000000000    0.9477760000000000    0.8547990000000000 O
