Li6 Mg2 P2 C2 O14
1.0
   6.4702960000000003    0.0000000000000000    0.0000000000000000
   0.0000000000000000    4.9561440000000001    0.0000000000000000
   0.0000000000000000    0.4583640000000000    8.3799609999999998
Li Mg P C O
6 2 2 2 14
direct
   0.7500000000000000    0.2556050000000000    0.9109400000000000 Li
   0.9809730000000000    0.7661570000000000    0.7334740000000000 Li
   0.5190270000000000    0.7661570000000000    0.7334740000000000 Li
   0.4809730000000000    0.2338430000000000    0.2665260000000000 Li
   0.0190270000000000    0.2338430000000000    0.2665260000000000 Li
   0.2500000000000000    0.7443950000000000    0.0890600000000000 Li
   0.2500000000000000    0.2110370000000000    0.6555900000000000 Mg
   0.7500000000000000    0.7889630000000000    0.3444100000000000 Mg
   0.7500000000000000    0.2872760000000000    0.5861090000000000 P
   0.2500000000000000    0.7127240000000000    0.4138910000000000 P
   0.2500000000000000    0.2756140000000000    0.9558190000000000 C
   0.7500000000000000    0.7243860000000000    0.0441810000000000 C
   0.2500000000000000    0.0275080000000000    0.9149659999999999 O
   0.7500000000000000    0.6645270000000000    0.8944700000000000 O
   0.2500000000000000    0.4700840000000000    0.8456470000000000 O
   0.9386930000000000    0.1870410000000000    0.6873910000000000 O
   0.5613070000000000    0.1870410000000000    0.6873910000000000 O
   0.7500000000000000    0.6020380000000000    0.5669590000000000 O
   0.2500000000000000    0.8230600000000000    0.5831499999999999 O
   0.7500000000000000    0.1769400000000000    0.4168500000000000 O
   0.2500000000000000    0.3979620000000000    0.4330410000000000 O
   0.4386930000000000    0.8129590000000000    0.3126090000000000 O
   0.0613070000000000    0.8129590000000000    0.3126090000000000 O
   0.7500000000000000    0.5299160000000001    0.1543530000000000 O
   0.2500000000000000    0.3354730000000000    0.1055300000000000 O
   0.7500000000000000    0.9724920000000000    0.0850340000000000 O
