pymatgen with grid density = 1447 / number of atoms
0
Gamma
5 4 3
