ALGO = Fast
EDIFF = 0.003
ENCUT = 520
IBRION = 2
ISIF = 3
ISMEAR = -5
ISPIN = 2
LASPH = True
LMAXMIX = 6
LORBIT = 11
LREAL = Auto
LWAVE = False
MAGMOM = 12*0.0 2*-0.007 2*1.527 8*0.002 16*0.0 8*0.016 12*0.0
NELM = 100
NSW = 99
PREC = Accurate
SIGMA = 0.05
