pymatgen with grid density = 1077 / number of atoms
0
Gamma
2 2 3
