Li4 Th10 O2 F44
1.0
  11.3376570000000001    0.0000000000000000    0.0000000000000000
   0.0000000000000000   11.3376570000000001    0.0000000000000000
   0.0000000000000000    0.0000000000000000    6.8776650000000004
Li Th O F
4 10 2 44
direct
   0.5000000000000000    0.5000000000000000    0.2495980000000000 Li
   0.0000000000000000    0.0000000000000000    0.7504020000000000 Li
   0.5000000000000000    0.5000000000000000    0.7504020000000000 Li
   0.0000000000000000    0.0000000000000000    0.2495980000000000 Li
   0.3455660000000000    0.6544340000000000    0.5000000000000000 Th
   0.6544340000000000    0.3455660000000000    0.5000000000000000 Th
   0.8455660000000000    0.8455660000000000    0.5000000000000000 Th
   0.1544340000000000    0.1544340000000000    0.5000000000000000 Th
   0.1560440000000000    0.8439560000000000    0.0000000000000000 Th
   0.8439560000000000    0.1560440000000000    0.0000000000000000 Th
   0.6560440000000000    0.6560440000000000    0.0000000000000000 Th
   0.3439560000000000    0.3439560000000000    0.0000000000000000 Th
   0.0000000000000000    0.5000000000000000    0.2559920000000000 Th
   0.5000000000000000    0.0000000000000000    0.7440080000000000 Th
   0.0000000000000000    0.5000000000000000    0.6966130000000000 O
   0.5000000000000000    0.0000000000000000    0.3033870000000000 O
   0.0885450000000000    0.6506080000000000    0.0624830000000000 F
   0.9114550000000000    0.3493920000000000    0.0624830000000000 F
   0.5885450000000000    0.8493920000000000    0.9375160000000000 F
   0.4114550000000000    0.1506080000000000    0.9375160000000000 F
   0.6506080000000000    0.0885450000000000    0.9375160000000000 F
   0.3493920000000000    0.9114550000000000    0.9375160000000000 F
   0.8493920000000000    0.5885450000000000    0.0624830000000000 F
   0.1506080000000000    0.4114550000000000    0.0624830000000000 F
   0.9981409999999999    0.8319060000000000    0.2486420000000000 F
   0.0018590000000000    0.1680940000000000    0.2486420000000000 F
   0.4981410000000000    0.6680940000000000    0.7513580000000000 F
   0.5018590000000001    0.3319060000000000    0.7513580000000000 F
   0.8319060000000000    0.9981409999999999    0.7513580000000000 F
   0.1680940000000000    0.0018590000000000    0.7513580000000000 F
   0.6680940000000000    0.4981410000000000    0.2486420000000000 F
   0.3319060000000000    0.5018590000000001    0.2486420000000000 F
   0.5035250000000000    0.6764430000000000    0.2515940000000000 F
   0.4964750000000000    0.3235570000000000    0.2515940000000000 F
   0.0035250000000000    0.8235570000000000    0.7484060000000000 F
   0.9964750000000000    0.1764430000000000    0.7484060000000000 F
   0.6764430000000000    0.5035250000000000    0.7484060000000000 F
   0.3235570000000000    0.4964750000000000    0.7484060000000000 F
   0.8235570000000000    0.0035250000000000    0.2515940000000000 F
   0.1764430000000000    0.9964750000000000    0.2515940000000000 F
   0.1526710000000000    0.5905100000000000    0.4435800000000000 F
   0.8473290000000000    0.4094900000000000    0.4435800000000000 F
   0.6526710000000000    0.9094900000000000    0.5564200000000000 F
   0.3473290000000000    0.0905100000000000    0.5564200000000000 F
   0.5905100000000000    0.1526710000000000    0.5564200000000000 F
   0.4094900000000000    0.8473290000000000    0.5564200000000000 F
   0.9094900000000000    0.6526710000000000    0.4435800000000000 F
   0.0905100000000000    0.3473290000000000    0.4435800000000000 F
   0.2687320000000000    0.7647460000000000    0.2470680000000000 F
   0.7312680000000000    0.2352540000000000    0.2470680000000000 F
   0.7687320000000000    0.7352540000000000    0.7529320000000000 F
   0.2312680000000000    0.2647460000000000    0.7529320000000000 F
   0.7647460000000000    0.2687320000000000    0.7529320000000000 F
   0.2352540000000000    0.7312680000000000    0.7529320000000000 F
   0.7352540000000000    0.7687320000000000    0.2470680000000000 F
   0.2647460000000000    0.2312680000000000    0.2470680000000000 F
   0.5000000000000000    0.5000000000000000    0.0000000000000000 F
   0.0000000000000000    0.0000000000000000    0.0000000000000000 F
   0.5000000000000000    0.5000000000000000    0.5000000000000000 F
   0.0000000000000000    0.0000000000000000    0.5000000000000000 F
