Cs1 Li1 Mg30 O31
1.0
   8.5522299999999998    0.0000000000000000    0.0000000000000000
   0.0000000000000000    8.7260969999999993    0.0000000000000000
   0.0000000000000000    0.0000000000000000    8.7960639999999994
Cs Li Mg O
1 1 30 31
direct
   0.5000000000000000    0.5000000000000000    0.9761830000000000 Cs
   0.0000000000000000    0.0000000000000000    0.9912080000000000 Li
   0.0000000000000000    0.5000000000000000    0.9758230000000000 Mg
   0.5000000000000000    0.0000000000000000    0.9983970000000000 Mg
   0.0000000000000000    0.0000000000000000    0.5024930000000000 Mg
   0.0000000000000000    0.5000000000000000    0.5189840000000000 Mg
   0.5000000000000000    0.0000000000000000    0.5001080000000000 Mg
   0.5000000000000000    0.5000000000000000    0.4886750000000000 Mg
   0.2435720000000000    0.2420030000000000    0.0062370000000000 Mg
   0.2435720000000000    0.7579970000000000    0.0062370000000000 Mg
   0.7564280000000000    0.2420030000000000    0.0062370000000000 Mg
   0.7564280000000000    0.7579970000000000    0.0062370000000000 Mg
   0.2475690000000000    0.2444190000000000    0.4966040000000000 Mg
   0.2475690000000000    0.7555809999999999    0.4966040000000000 Mg
   0.7524310000000000    0.2444190000000000    0.4966040000000000 Mg
   0.7524310000000000    0.7555809999999999    0.4966040000000000 Mg
   0.0000000000000000    0.2248070000000000    0.2411500000000000 Mg
   0.0000000000000000    0.7751930000000000    0.2411500000000000 Mg
   0.5000000000000000    0.2391440000000000    0.2517090000000000 Mg
   0.5000000000000000    0.7608560000000000    0.2517090000000000 Mg
   0.0000000000000000    0.2430350000000000    0.7567700000000001 Mg
   0.0000000000000000    0.7569650000000000    0.7567700000000001 Mg
   0.5000000000000000    0.2429890000000000    0.7392400000000000 Mg
   0.5000000000000000    0.7570110000000000    0.7392400000000000 Mg
   0.2506600000000000    0.0000000000000000    0.2469700000000000 Mg
   0.2680590000000000    0.5000000000000000    0.2572610000000000 Mg
   0.7493400000000000    0.0000000000000000    0.2469700000000000 Mg
   0.7319410000000000    0.5000000000000000    0.2572610000000000 Mg
   0.2476980000000000    0.0000000000000000    0.7565950000000000 Mg
   0.2529660000000000    0.5000000000000000    0.7268780000000000 Mg
   0.7523020000000000    0.0000000000000000    0.7565950000000000 Mg
   0.7470340000000000    0.5000000000000000    0.7268780000000000 Mg
   0.0000000000000000    0.0000000000000000    0.2638880000000000 O
   0.5000000000000000    0.0000000000000000    0.2620780000000000 O
   0.5000000000000000    0.5000000000000000    0.2743250000000000 O
   0.0000000000000000    0.0000000000000000    0.7397770000000000 O
   0.0000000000000000    0.5000000000000000    0.7464990000000000 O
   0.5000000000000000    0.0000000000000000    0.7438320000000000 O
   0.5000000000000000    0.5000000000000000    0.6989610000000001 O
   0.2448750000000000    0.2483140000000000    0.2543970000000000 O
   0.2448750000000000    0.7516860000000000    0.2543970000000000 O
   0.7551250000000000    0.2483140000000000    0.2543970000000000 O
   0.7551250000000000    0.7516860000000000    0.2543970000000000 O
   0.2514550000000000    0.2569530000000000    0.7512280000000000 O
   0.2514550000000000    0.7430470000000000    0.7512280000000000 O
   0.7485450000000000    0.2569530000000000    0.7512280000000000 O
   0.7485450000000000    0.7430470000000000    0.7512280000000000 O
   0.0000000000000000    0.2497610000000000    0.9995980000000000 O
   0.0000000000000000    0.7502390000000000    0.9995980000000000 O
   0.5000000000000000    0.2169480000000000    0.0130540000000000 O
   0.5000000000000000    0.7830520000000000    0.0130540000000000 O
   0.0000000000000000    0.2561940000000000    0.4957290000000000 O
   0.0000000000000000    0.7438060000000000    0.4957290000000000 O
   0.5000000000000000    0.2441440000000000    0.4963330000000000 O
   0.5000000000000000    0.7558560000000000    0.4963330000000000 O
   0.2481510000000000    0.0000000000000000    0.0003160000000000 O
   0.2086940000000000    0.5000000000000000    0.0430080000000000 O
   0.7518490000000000    0.0000000000000000    0.0003160000000000 O
   0.7913060000000000    0.5000000000000000    0.0430080000000000 O
   0.2480900000000000    0.0000000000000000    0.5038680000000000 O
   0.2365680000000000    0.5000000000000000    0.4889720000000000 O
   0.7519100000000000    0.0000000000000000    0.5038680000000000 O
   0.7634320000000000    0.5000000000000000    0.4889720000000000 O
