ALGO = Fast
EDIFF = 0.00095
ENCUT = 520
IBRION = 2
ISIF = 3
ISMEAR = -5
ISPIN = 2
LASPH = True
LMAXMIX = 6
LORBIT = 11
LREAL = Auto
LWAVE = False
MAGMOM = 1*0.038 1*0.583 1*0.628 1*0.829 1*0.364 1*0.736 1*3.108 1*0.59 1*0.923 1*0.746 1*1.696 1*-0.052 2*-0.053 1*-0.059 1*-0.053 1*-0.061 1*-0.03 1*-0.031
NELM = 100
NSW = 99
PREC = Accurate
SIGMA = 0.05
