Na1 Li1 Mg6 O7
1.0
   8.7002319999999997    0.0000000000000000    0.0000000000000000
   0.0000000000000000    4.3026100800000000    0.0000000000000000
   0.0000000000000000    0.0000000000000000    4.3026100800000000
Na Li Mg O
1 1 6 7
direct
   0.9929372300000000    0.5000000000000000    0.5000000000000000 Na
   0.0125586000000000    0.0000000000000000    0.0000000000000000 Li
   0.4957475700000000    0.0000000000000000   -0.0000000000000000 Mg
   0.5185482700000000    0.5000000000000000    0.5000000000000000 Mg
   0.2349832800000000    0.0000000000000000    0.5000000000000000 Mg
   0.7791468700000000    0.0000000000000000    0.5000000000000000 Mg
   0.2349832800000000    0.5000000000000000    0.0000000000000000 Mg
   0.7791468700000000    0.5000000000000000    0.0000000000000000 Mg
   0.2545945200000000    0.0000000000000000    0.0000000000000000 O
   0.7361958400000000    0.0000000000000000    0.0000000000000000 O
   0.7399096600000000    0.5000000000000000    0.5000000000000000 O
   0.0148130700000000    0.0000000000000000    0.5000000000000000 O
   0.4708109400000000    0.0000000000000000    0.5000000000000000 O
   0.0148130700000000    0.5000000000000000   -0.0000000000000000 O
   0.4708109400000000    0.5000000000000000   -0.0000000000000000 O
