pymatgen with grid density = 1562 / number of atoms
0
Gamma
5 2 2
