Na1 Li1 Mg14 O15
1.0
   4.2815880000000002    0.0000000000000000    0.0000000000000000
   0.0000000000000000    8.5317609999999995    0.0000000000000000
   0.0000000000000000    0.0000000000000000    8.6241710000000005
Na Li Mg O
1 1 14 15
direct
   0.0000000000000000    0.4964420000000000    0.5000000000000000 Na
   0.0000000000000000    0.0224330000000000    0.0000000000000000 Li
   0.0000000000000000    0.0020020000000000    0.5000000000000000 Mg
   0.0000000000000000    0.4777700000000000    0.0000000000000000 Mg
   0.5000000000000000    0.9988930000000000    0.2452040000000000 Mg
   0.5000000000000000    0.9988930000000000    0.7547960000000000 Mg
   0.5000000000000000    0.5012300000000000    0.2527190000000000 Mg
   0.5000000000000000    0.5012300000000000    0.7472810000000000 Mg
   0.5000000000000000    0.7543230000000000    0.0000000000000000 Mg
   0.5000000000000000    0.7480460000000000    0.5000000000000000 Mg
   0.5000000000000000    0.2389210000000000    0.0000000000000000 Mg
   0.5000000000000000    0.2521900000000000    0.5000000000000000 Mg
   0.0000000000000000    0.7516200000000000    0.2732780000000000 Mg
   0.0000000000000000    0.7516200000000000    0.7267220000000000 Mg
   0.0000000000000000    0.2443440000000000    0.2506430000000000 Mg
   0.0000000000000000    0.2443440000000000    0.7493570000000001 Mg
   0.0000000000000000    0.7628239999999999    0.5000000000000000 O
   0.0000000000000000    0.2483130000000000    0.0000000000000000 O
   0.0000000000000000    0.2365880000000000    0.5000000000000000 O
   0.5000000000000000    0.7503339999999999    0.2411440000000000 O
   0.5000000000000000    0.7503339999999999    0.7588560000000000 O
   0.5000000000000000    0.2511140000000000    0.2468340000000000 O
   0.5000000000000000    0.2511140000000000    0.7531660000000000 O
   0.5000000000000000    0.9886800000000000    0.0000000000000000 O
   0.5000000000000000    0.9969330000000000    0.5000000000000000 O
   0.5000000000000000    0.5128660000000000    0.0000000000000000 O
   0.5000000000000000    0.5034630000000000    0.5000000000000000 O
   0.0000000000000000    0.9924269999999999    0.2480060000000000 O
   0.0000000000000000    0.9924269999999999    0.7519940000000001 O
   0.0000000000000000    0.5141410000000000    0.2277430000000000 O
   0.0000000000000000    0.5141410000000000    0.7722570000000000 O
