Li1 Al4 Cd2 O8
1.0
  -4.1650479999999996   -4.1650479999999996    0.0000000000000000
  -4.1650479999999996    0.0000000000000000   -4.1650479999999996
   0.2867640000000000   -4.4518120000000003   -4.4518120000000003
Li Al Cd O
1 4 2 8
direct
   0.0000000000000000    0.0000000000000000    0.5000000000000000 Li
   0.5000000000000000    0.5000000000000000    0.0000000000000000 Al
   0.5000000000000000    0.0000000000000000    0.5000000000000000 Al
   0.0000000000000000    0.5000000000000000    0.5000000000000000 Al
   0.5000000000000000    0.5000000000000000    0.5000000000000000 Al
   0.1496210000000000    0.1496210000000000    0.0511370000000000 Cd
   0.8503790000000000    0.8503790000000000    0.9488630000000000 Cd
   0.2812530000000000    0.2812530000000000    0.6562420000000000 O
   0.2608420000000000    0.7010780000000000    0.2772380000000000 O
   0.7010780000000000    0.2608420000000000    0.2772380000000000 O
   0.2608420000000000    0.2608420000000000    0.2772380000000000 O
   0.7187470000000000    0.7187470000000000    0.3437580000000000 O
   0.7391580000000000    0.2989220000000000    0.7227620000000000 O
   0.2989220000000000    0.7391580000000000    0.7227620000000000 O
   0.7391580000000000    0.7391580000000000    0.7227620000000000 O
