Li4 B12 O18 F4
1.0
   8.1696120000000008    2.4444800000000000    0.0000000000000000
  -8.1696120000000008    2.4444800000000000    0.0000000000000000
   0.0000000000000000    0.3810150000000000   10.1581880000000009
Li B O F
4 12 18 4
direct
   0.0807840000000000    0.1540230000000000    0.6210140000000000 Li
   0.1540230000000000    0.0807840000000000    0.1210140000000000 Li
   0.9380990000000000    0.4529550000000000    0.4512000000000000 Li
   0.4529550000000000    0.9380990000000000    0.9512000000000000 Li
   0.5250359999999999    0.7909490000000000    0.5160420000000000 B
   0.7909490000000000    0.5250359999999999    0.0160420000000000 B
   0.8290600000000000    0.8970089999999999    0.3555650000000000 B
   0.8970089999999999    0.8290600000000000    0.8555650000000000 B
   0.7459810000000000    0.4521620000000000    0.7778870000000000 B
   0.4521620000000000    0.7459810000000000    0.2778870000000000 B
   0.6011900000000000    0.0890830000000000    0.6587550000000000 B
   0.0890830000000000    0.6011900000000000    0.1587550000000000 B
   0.6278410000000000    0.3023270000000000    0.2435630000000000 B
   0.3023270000000000    0.6278410000000000    0.7435630000000000 B
   0.2130000000000000    0.0253470000000000    0.4123510000000000 B
   0.0253470000000000    0.2130000000000000    0.9123510000000000 B
   0.3436860000000000    0.5803320000000000    0.6291920000000000 O
   0.5803320000000000    0.3436860000000000    0.1291920000000000 O
   0.7554350000000000    0.8706860000000000    0.4837190000000000 O
   0.8706860000000000    0.7554350000000000    0.9837190000000000 O
   0.8490850000000000    0.6874100000000000    0.7526440000000000 O
   0.6874100000000000    0.8490850000000000    0.2526440000000000 O
   0.7317640000000000    0.3410050000000000    0.6715760000000000 O
   0.3410050000000000    0.7317640000000000    0.1715760000000000 O
   0.6673310000000000    0.3393750000000000    0.9035790000000000 O
   0.3393750000000000    0.6673310000000000    0.4035790000000000 O
   0.6702090000000001    0.0628350000000000    0.5493730000000000 O
   0.0628350000000000    0.6702090000000001    0.0493730000000000 O
   0.4126620000000000    0.8733450000000000    0.7546530000000000 O
   0.8733450000000000    0.4126620000000000    0.2546530000000000 O
   0.4595850000000000    0.1586590000000000    0.3527910000000000 O
   0.1586590000000000    0.4595850000000000    0.8527910000000000 O
   0.0480430000000000    0.9804380000000000    0.3186690000000000 O
   0.9804380000000000    0.0480430000000000    0.8186690000000000 O
   0.3002410000000000    0.1959300000000000    0.5181390000000000 F
   0.1959300000000000    0.3002410000000000    0.0181390000000000 F
   0.0373720000000000    0.7567250000000000    0.4697880000000000 F
   0.7567250000000000    0.0373720000000000    0.9697880000000000 F
