Li1 Mg6 B1 O8
1.0
   8.1008688400000004    0.0000000000000000   -0.0000000000000000
   0.0000000000000000    4.2744763299999997   -0.0000000000000000
  -0.0000000000000000    0.0000000000000000    4.2744763299999997
Li Mg B O
1 6 1 8
direct
  -0.0000000000000000    0.0000000000000000    0.0000000000000000 Li
   0.0000000000000000    0.5000000000000000    0.5000000000000000 Mg
   0.5000000000000000    0.5000000000000000    0.5000000000000000 Mg
   0.2539769400000000   -0.0000000000000000    0.5000000000000000 Mg
   0.7460230600000000    0.0000000000000000    0.5000000000000000 Mg
   0.2539769400000000    0.5000000000000000    0.0000000000000000 Mg
   0.7460230600000000    0.5000000000000000   -0.0000000000000000 Mg
   0.5000000000000000    0.0000000000000000    0.0000000000000000 B
   0.3217354800000000   -0.0000000000000000    0.0000000000000000 O
   0.6782645200000000    0.0000000000000000   -0.0000000000000000 O
   0.2500196800000000    0.5000000000000000    0.5000000000000000 O
   0.7499803200000000    0.5000000000000000    0.5000000000000000 O
  -0.0000000000000000    0.0000000000000000    0.5000000000000000 O
   0.5000000000000000    0.0000000000000000    0.5000000000000000 O
   0.0000000000000000    0.5000000000000000    0.0000000000000000 O
   0.5000000000000000    0.5000000000000000    0.0000000000000000 O
