Li8 Sb4 C8 S2 O32
1.0
   9.5804189999999991    0.0000000000000000    0.0000000000000000
  -0.7049420000000000    9.6763100000000009    0.0000000000000000
  -4.4202979999999998   -4.5706610000000003    7.4745869999999996
Li Sb C S O
8 4 8 2 32
direct
   0.8250030000000000    0.0704770000000000    0.7500160000000000 Li
   0.8527800000000000    0.0801730000000000    0.1410710000000000 Li
   0.4318370000000000    0.0643350000000000    0.7779190000000000 Li
   0.5453120000000000    0.2687680000000000    0.1942610000000000 Li
   0.8318530000000000    0.7011610000000000    0.7723970000000000 Li
   0.4042270000000000    0.6259950000000000    0.6642830000000000 Li
   0.5586140000000001    0.9390450000000000    0.2670830000000000 Li
   0.1991140000000000    0.9091380000000000    0.2352480000000000 Li
   0.9909470000000000    0.5110780000000000    0.4982210000000000 Sb
   0.9868470000000000    0.4896060000000000    0.9878050000000000 Sb
   0.5079370000000000    0.5075910000000000    0.0188180000000000 Sb
   0.0244150000000000    0.9911930000000000    0.5065760000000000 Sb
   0.8383940000000000    0.2736630000000000    0.5758130000000000 C
   0.7579870000000000    0.3102980000000000    0.0527020000000000 C
   0.7983820000000000    0.7441910000000000    0.0666460000000000 C
   0.7424730000000000    0.6982190000000000    0.4368390000000000 C
   0.2244610000000000    0.3039610000000000    0.5687560000000000 C
   0.2097660000000000    0.2462890000000000    0.9091990000000000 C
   0.2152810000000000    0.6774410000000000    0.9189630000000000 C
   0.2004070000000000    0.7622710000000000    0.4567350000000000 C
   0.3861440000000000    0.1280450000000000    0.2659930000000000 S
   0.6317130000000000    0.8842670000000000    0.7714990000000000 S
   0.8157830000000000    0.1367040000000000    0.4538640000000000 O
   0.8866530000000000    0.3059870000000000    0.0395370000000000 O
   0.8415330000000000    0.2880170000000000    0.7174250000000000 O
   0.7356530000000000    0.2619540000000000    0.1460640000000000 O
   0.8559390000000000    0.4060980000000000    0.5697360000000000 O
   0.4410930000000000    0.0609790000000000    0.3877090000000000 O
   0.4510720000000000    0.0562450000000000    0.1449130000000000 O
   0.6510080000000000    0.3627720000000000    0.9618460000000000 O
   0.8017660000000000    0.6294490000000000    0.9360140000000000 O
   0.8574870000000000    0.6897540000000000    0.5701230000000000 O
   0.2019430000000000    0.0699620000000000    0.1647450000000000 O
   0.4593140000000000    0.3058730000000000    0.3588550000000000 O
   0.2220190000000000    0.1752600000000000    0.5884220000000000 O
   0.3532780000000000    0.2328040000000000    0.9502790000000000 O
   0.6581550000000000    0.5554880000000000    0.2806340000000000 O
   0.8987980000000000    0.8887750000000000    0.1634930000000000 O
   0.3611530000000000    0.4160690000000000    0.6621750000000000 O
   0.0728460000000000    0.1223730000000000    0.7699780000000001 O
   0.6876120000000000    0.7125450000000000    0.1035000000000000 O
   0.7198200000000000    0.8281220000000000    0.4532240000000000 O
   0.5931410000000000    0.7086209999999999    0.6497750000000000 O
   0.8181010000000000    0.9581390000000000    0.8883580000000000 O
   0.1961240000000000    0.3834280000000000    0.9977710000000000 O
   0.0834260000000000    0.3038000000000000    0.4562830000000000 O
   0.3587400000000000    0.7199900000000000    0.0515900000000000 O
   0.5569670000000000    0.9022600000000000    0.8797820000000000 O
   0.5705450000000000    0.9738620000000000    0.6775540000000000 O
   0.2287840000000000    0.6412530000000000    0.4681260000000000 O
   0.1959400000000000    0.6337699999999999    0.7609660000000000 O
   0.1463610000000000    0.7688060000000000    0.3143380000000000 O
   0.0841870000000000    0.6720520000000000    0.9299830000000000 O
   0.2144150000000000    0.8915820000000000    0.5996370000000000 O
