Li8 P10 H2 O30
1.0
   6.7234540000000003    0.0000000000000000    0.0000000000000000
   0.5891060000000000    7.3242419999999999    0.0000000000000000
   1.3478100000000000    3.3359359999999998   10.9694769999999995
Li P H O
8 10 2 30
direct
   0.3134450000000000    0.3112140000000000    0.7363180000000000 Li
   0.4248540000000000    0.3965380000000000    0.1761210000000000 Li
   0.2790640000000000    0.2875650000000000    0.9880830000000000 Li
   0.3852480000000000    0.3612440000000000    0.4448790000000000 Li
   0.6147520000000000    0.6387560000000000    0.5551210000000000 Li
   0.7209360000000000    0.7124350000000000    0.0119170000000000 Li
   0.5751460000000000    0.6034620000000001    0.8238790000000000 Li
   0.6865550000000000    0.6887860000000000    0.2636820000000000 Li
   0.0724900000000000    0.6562200000000000    0.8301620000000000 P
   0.2006400000000000    0.7595870000000000    0.2271840000000000 P
   0.1439510000000000    0.7214210000000000    0.5629630000000000 P
   0.3904450000000000    0.9750560000000000    0.3592910000000000 P
   0.2909140000000000    0.8758380000000000    0.9518480000000000 P
   0.7090860000000000    0.1241620000000000    0.0481520000000000 P
   0.6095550000000000    0.0249440000000000    0.6407090000000000 P
   0.8560489999999999    0.2785790000000000    0.4370370000000000 P
   0.7993600000000000    0.2404130000000000    0.7728159999999999 P
   0.9275099999999999    0.3437800000000000    0.1698380000000000 P
   0.0420670000000000    0.2969490000000000    0.5769350000000000 H
   0.9579330000000000    0.7030510000000000    0.4230650000000000 H
   0.0053960000000000    0.2836750000000000    0.7065920000000000 O
   0.0564440000000000    0.3098110000000000    0.4826350000000000 O
   0.1377830000000000    0.3944610000000000    0.1201280000000000 O
   0.1682490000000000    0.8364890000000000    0.0857900000000000 O
   0.0745710000000000    0.7722340000000000    0.6853680000000000 O
   0.1195700000000000    0.8305930000000000    0.8785610000000000 O
   0.2183780000000000    0.9208640000000000    0.4757220000000000 O
   0.2711350000000000    0.9515150000000000    0.2505130000000000 O
   0.2399950000000000    0.5047770000000000    0.8439090000000000 O
   0.3045070000000000    0.5654020000000000    0.5715510000000000 O
   0.3661750000000000    0.6066690000000000    0.2543760000000000 O
   0.4210040000000000    0.1832390000000000    0.3331470000000000 O
   0.3203640000000000    0.0857880000000000    0.9038100000000000 O
   0.5374270000000000    0.2683230000000000    0.0468830000000000 O
   0.4362420000000000    0.1680370000000000    0.6162200000000000 O
   0.5637580000000000    0.8319630000000000    0.3837800000000000 O
   0.4625730000000000    0.7316770000000000    0.9531170000000000 O
   0.6796360000000000    0.9142120000000000    0.0961900000000000 O
   0.5789960000000000    0.8167610000000000    0.6668530000000000 O
   0.6338250000000000    0.3933310000000000    0.7456240000000000 O
   0.6954930000000000    0.4345980000000000    0.4284490000000000 O
   0.7600050000000000    0.4952230000000000    0.1560910000000000 O
   0.7288650000000000    0.0484850000000000    0.7494870000000000 O
   0.7816220000000000    0.0791360000000000    0.5242780000000000 O
   0.8804300000000000    0.1694070000000000    0.1214390000000000 O
   0.9254289999999999    0.2277660000000000    0.3146320000000000 O
   0.8317510000000000    0.1635110000000000    0.9142100000000000 O
   0.8622170000000000    0.6055390000000000    0.8798720000000000 O
   0.9435560000000000    0.6901890000000001    0.5173650000000000 O
   0.9946040000000000    0.7163250000000000    0.2934080000000000 O
