Li4 H8 Br4 O20
1.0
   3.0510280000000001    9.3258840000000003    0.0000000000000000
  -3.0510280000000001    9.3258840000000003    0.0000000000000000
   0.0000000000000000    4.7151889999999996    9.8405380000000005
Li H Br O
4 8 4 20
direct
   0.0000000000000000    0.5000000000000000    0.0000000000000000 Li
   0.5000000000000000    0.0000000000000000    0.5000000000000000 Li
   0.2464400000000000    0.7535600000000000    0.7500000000000000 Li
   0.7535600000000000    0.2464400000000000    0.2500000000000000 Li
   0.5556510000000000    0.6343500000000000    0.2866810000000000 H
   0.3656500000000000    0.4443490000000000    0.2133190000000000 H
   0.4443490000000000    0.3656500000000000    0.7133190000000000 H
   0.6343500000000000    0.5556510000000000    0.7866810000000000 H
   0.0717220000000000    0.3411860000000000    0.5566719999999999 H
   0.6588140000000000    0.9282780000000000    0.9433280000000001 H
   0.9282780000000000    0.6588140000000000    0.4433280000000000 H
   0.3411860000000000    0.0717220000000000    0.0566720000000000 H
   0.8559010000000000    0.8398240000000000    0.7085690000000000 Br
   0.1601760000000000    0.1440990000000000    0.7914310000000000 Br
   0.1440990000000000    0.1601760000000000    0.2914310000000000 Br
   0.8398240000000000    0.8559010000000000    0.2085690000000000 Br
   0.7169489999999999    0.8073910000000000    0.9091140000000000 O
   0.1926090000000000    0.2830510000000000    0.5908860000000000 O
   0.2830510000000000    0.1926090000000000    0.0908860000000000 O
   0.8073910000000000    0.7169489999999999    0.4091140000000000 O
   0.7078100000000001    0.9075900000000000    0.6131020000000000 O
   0.0924100000000000    0.2921900000000000    0.8868980000000000 O
   0.2921900000000000    0.0924100000000000    0.3868980000000000 O
   0.9075900000000000    0.7078100000000001    0.1131020000000000 O
   0.2024240000000000    0.6937460000000000    0.6259350000000000 O
   0.3062540000000000    0.7975760000000000    0.8740650000000000 O
   0.7975760000000000    0.3062540000000000    0.3740650000000000 O
   0.6937460000000000    0.2024240000000000    0.1259350000000000 O
   0.7325480000000000    0.0890210000000000    0.7163780000000000 O
   0.9109790000000000    0.2674520000000000    0.7836220000000000 O
   0.2674520000000000    0.9109790000000000    0.2836220000000000 O
   0.0890210000000000    0.7325480000000000    0.2163780000000000 O
   0.4821140000000000    0.7050700000000000    0.7516540000000000 O
   0.2949300000000000    0.5178860000000000    0.7483460000000000 O
   0.5178860000000000    0.2949300000000000    0.2483460000000000 O
   0.7050700000000000    0.4821140000000000    0.2516540000000000 O
