Li2 H6 Se4 O12
1.0
   8.0130759999999999    0.0000000000000000    0.0000000000000000
   0.0000000000000000    5.5600480000000001    0.0000000000000000
   0.0000000000000000    3.8675619999999999    6.0794319999999997
Li H Se O
2 6 4 12
direct
   0.2471890000000000    0.4748780000000000    0.0030510000000000 Li
   0.7528110000000000    0.4748780000000000    0.5030510000000000 Li
   0.1449450000000000    0.5744820000000000    0.3252790000000000 H
   0.8550550000000000    0.5744820000000000    0.8252790000000000 H
   0.3829940000000000    0.4572580000000000    0.6163790000000000 H
   0.6170060000000001    0.4572580000000000    0.1163790000000000 H
   0.2302650000000000    0.9745890000000000    0.5524870000000000 H
   0.7697349999999999    0.9745890000000000    0.0524870000000000 H
   0.3930910000000000    0.8545110000000000    0.2339430000000000 Se
   0.6069090000000000    0.8545110000000000    0.7339430000000000 Se
   0.1033070000000000    0.1470180000000000    0.7669670000000000 Se
   0.8966930000000000    0.1470180000000000    0.2669670000000000 Se
   0.2253430000000000    0.6733360000000000    0.1914400000000000 O
   0.7746570000000000    0.6733360000000000    0.6914400000000001 O
   0.2770060000000000    0.3038790000000000    0.7986529999999999 O
   0.7229940000000000    0.3038790000000000    0.2986530000000000 O
   0.2913400000000000    0.0611390000000000    0.3019480000000000 O
   0.7086600000000000    0.0611390000000000    0.8019480000000000 O
   0.2037640000000000    0.8957990000000000    0.7122430000000000 O
   0.7962360000000001    0.8957990000000000    0.2122430000000000 O
   0.4744950000000000    0.5692260000000000    0.4865010000000000 O
   0.5255050000000000    0.5692260000000000    0.9865010000000000 O
   0.0239950000000000    0.3996450000000000    0.5169200000000000 O
   0.9760050000000000    0.3996450000000000    0.0169200000000000 O
