Li2 H8 N6 O12
1.0
   3.8799429999999999    6.3297450000000000    0.0000000000000000
  -3.8799429999999999    6.3297450000000000    0.0000000000000000
   0.0000000000000000    2.5897389999999998    6.4187450000000004
Li H N O
2 8 6 12
direct
   0.9259690000000000    0.0740310000000000    0.7500000000000000 Li
   0.0740310000000000    0.9259690000000000    0.2500000000000000 Li
   0.3157800000000000    0.9030270000000000    0.7736450000000000 H
   0.6842200000000001    0.0969730000000000    0.2263550000000000 H
   0.0969730000000000    0.6842200000000001    0.7263550000000000 H
   0.9030270000000000    0.3157800000000000    0.2736450000000000 H
   0.2296470000000000    0.1312410000000000    0.7971090000000000 H
   0.7703530000000000    0.8687589999999999    0.2028910000000000 H
   0.8687589999999999    0.7703530000000000    0.7028910000000000 H
   0.1312410000000000    0.2296470000000000    0.2971090000000000 H
   0.4719020000000000    0.5280980000000000    0.7500000000000000 N
   0.5280980000000000    0.4719020000000000    0.2500000000000000 N
   0.4677390000000000    0.3411970000000000    0.7618220000000000 N
   0.5322610000000000    0.6588030000000000    0.2381780000000000 N
   0.6588030000000000    0.5322610000000000    0.7381780000000000 N
   0.3411970000000000    0.4677390000000000    0.2618220000000000 N
   0.6165240000000000    0.1718520000000000    0.7594959999999999 O
   0.3834760000000000    0.8281480000000000    0.2405040000000000 O
   0.8281480000000000    0.3834760000000000    0.7405040000000001 O
   0.1718520000000000    0.6165240000000000    0.2594960000000000 O
   0.1879390000000000    0.0175950000000000    0.8153520000000000 O
   0.8120610000000000    0.9824050000000000    0.1846480000000000 O
   0.9824050000000000    0.8120610000000000    0.6846480000000000 O
   0.0175950000000000    0.1879390000000000    0.3153520000000000 O
   0.6372440000000000    0.7136910000000000    0.7263450000000000 O
   0.3627560000000000    0.2863090000000000    0.2736550000000000 O
   0.2863090000000000    0.3627560000000000    0.7736550000000000 O
   0.7136910000000000    0.6372440000000000    0.2263450000000000 O
