Li2 H12 Br2 O14
1.0
   3.9492419999999999   -6.8402880000000001    0.0000000000000000
   3.9492419999999999    6.8402880000000001    0.0000000000000000
   0.0000000000000000    0.0000000000000000    5.6973719999999997
Li H Br O
2 12 2 14
direct
   0.0000000000000000    0.0000000000000000    0.7065650000000000 Li
   0.0000000000000000    0.0000000000000000    0.2065650000000000 Li
   0.7382570000000001    0.6742220000000000    0.9486590000000000 H
   0.2617430000000000    0.9359640000000000    0.4486590000000000 H
   0.3257780000000000    0.0640360000000000    0.9486590000000000 H
   0.9359640000000000    0.2617430000000000    0.9486590000000000 H
   0.0640360000000000    0.7382570000000001    0.4486590000000000 H
   0.2617430000000000    0.3257780000000000    0.4486590000000000 H
   0.6742220000000000    0.9359640000000000    0.4486590000000000 H
   0.7382570000000001    0.0640360000000000    0.9486590000000000 H
   0.6742220000000000    0.7382570000000001    0.4486590000000000 H
   0.0640360000000000    0.3257780000000000    0.4486590000000000 H
   0.9359640000000000    0.6742220000000000    0.9486590000000000 H
   0.3257780000000000    0.2617430000000000    0.9486590000000000 H
   0.3333330000000000    0.6666670000000000    0.0022500000000000 Br
   0.6666670000000000    0.3333330000000000    0.5022500000000000 Br
   0.8805610000000000    0.7611230000000000    0.9537440000000000 O
   0.5529080000000000    0.1058160000000000    0.4021490000000000 O
   0.7611230000000000    0.8805610000000000    0.4537440000000000 O
   0.8805610000000000    0.1194390000000000    0.9537440000000000 O
   0.1194390000000000    0.8805610000000000    0.4537440000000000 O
   0.5529080000000000    0.4470920000000000    0.4021490000000000 O
   0.1058160000000000    0.5529080000000000    0.9021490000000000 O
   0.4470920000000000    0.8941840000000000    0.9021490000000000 O
   0.1194390000000000    0.2388770000000000    0.4537440000000000 O
   0.8941840000000000    0.4470920000000000    0.4021490000000000 O
   0.4470920000000000    0.5529080000000000    0.9021490000000000 O
   0.6666670000000000    0.3333330000000000    0.7908510000000000 O
   0.3333330000000000    0.6666670000000000    0.2908510000000000 O
   0.2388770000000000    0.1194390000000000    0.9537440000000000 O
