pymatgen with grid density = 863 / number of atoms
0
Monkhorst
6 6 2
