Li1 Tm2 Cl2 O2
1.0
   3.8721559999999999    0.0000000000000000    0.0000000000000000
   0.0000000000000000    3.8721559999999999    0.0000000000000000
   0.0000000000000000    0.0000000000000000    8.5925410000000007
Li Tm Cl O
1 2 2 2
direct
   0.0000000000000000    0.0000000000000000    0.5000000000000000 Li
   0.0000000000000000    0.5000000000000000    0.1223660000000000 Tm
   0.5000000000000000    0.0000000000000000    0.8776340000000000 Tm
   0.0000000000000000    0.5000000000000000    0.6854540000000000 Cl
   0.5000000000000000    0.0000000000000000    0.3145460000000000 Cl
   0.0000000000000000    0.0000000000000000    0.0000000000000000 O
   0.5000000000000000    0.5000000000000000    0.0000000000000000 O
