Li4 P4 H8 O16
1.0
   6.3937730000000004    0.0000000000000000    0.0000000000000000
   0.0000000000000000    6.9261080000000002    0.0000000000000000
   0.0000000000000000    0.0000000000000000    7.7019520000000004
Li P H O
4 4 8 16
direct
   0.0130810000000000    0.5045450000000000    0.7271950000000000 Li
   0.5130810000000000    0.5045450000000000    0.7728050000000000 Li
   0.4869190000000000    0.0045450000000000    0.2271950000000000 Li
   0.9869190000000000    0.0045450000000000    0.2728050000000000 Li
   0.1986700000000000    0.6781380000000000    0.0710650000000000 P
   0.8013300000000000    0.1781380000000000    0.9289350000000000 P
   0.3013300000000000    0.1781380000000000    0.5710650000000000 P
   0.6986700000000000    0.6781380000000000    0.4289350000000000 P
   0.0376710000000000    0.3910210000000000    0.1400250000000000 H
   0.9623290000000000    0.8910210000000000    0.8599750000000000 H
   0.4623290000000000    0.8910210000000000    0.6400250000000000 H
   0.5376710000000000    0.3910210000000000    0.3599750000000000 H
   0.9884160000000000    0.0645860000000000    0.6123270000000000 H
   0.0115840000000000    0.5645860000000000    0.3876730000000000 H
   0.4884160000000000    0.0645860000000000    0.8876730000000000 H
   0.5115840000000000    0.5645860000000000    0.1123270000000000 H
   0.7272720000000000    0.8543860000000000    0.3156150000000000 O
   0.0768560000000000    0.0990590000000000    0.5082330000000000 O
   0.9312670000000000    0.2009290000000000    0.0925970000000000 O
   0.0687330000000000    0.7009290000000000    0.9074030000000000 O
   0.9231440000000000    0.5990590000000000    0.4917670000000000 O
   0.5687330000000000    0.7009290000000000    0.5925970000000000 O
   0.5768560000000000    0.0990590000000000    0.9917670000000000 O
   0.4231440000000000    0.5990590000000000    0.0082330000000000 O
   0.6058860000000000    0.5129060000000000    0.3061930000000000 O
   0.3941140000000000    0.0129060000000000    0.6938070000000000 O
   0.8941140000000000    0.0129060000000000    0.8061930000000000 O
   0.1058860000000000    0.5129060000000000    0.1938070000000000 O
   0.7727280000000000    0.3543860000000000    0.8156150000000000 O
   0.2727280000000000    0.3543860000000000    0.6843850000000000 O
   0.4312670000000000    0.2009290000000000    0.4074030000000000 O
   0.2272720000000000    0.8543860000000000    0.1843850000000000 O
