Li8 Zn8 B8 O24
1.0
   5.0820489999999996    0.0000000000000000    0.0000000000000000
  -0.0148740000000000    8.8592680000000001    0.0000000000000000
  -0.0812050000000000   -0.0026390000000000   11.2217040000000008
Li Zn B O
8 8 8 24
direct
   0.6753860000000000    0.0145060000000000    0.1663770000000000 Li
   0.3483120000000000    0.9978810000000000    0.8975970000000000 Li
   0.3360740000000000    0.0025600000000000    0.3525380000000000 Li
   0.8243360000000000    0.5095190000000001    0.3331150000000000 Li
   0.1037670000000000    0.4915150000000000    0.7256030000000000 Li
   0.1651780000000000    0.5091420000000000    0.1528550000000000 Li
   0.1521640000000000    0.5063430000000000    0.5342860000000000 Li
   0.6608740000000000    0.9935020000000000    0.6723660000000000 Li
   0.8549480000000000    0.1691180000000000    0.8905700000000000 Zn
   0.1604410000000000    0.1624200000000000    0.6210200000000000 Zn
   0.6618260000000000    0.3450100000000000    0.1019070000000000 Zn
   0.3442320000000000    0.3257160000000000    0.3526660000000000 Zn
   0.6514320000000000    0.6664140000000000    0.6502650000000000 Zn
   0.8397300000000000    0.8377050000000000    0.3946930000000000 Zn
   0.3664870000000000    0.6547290000000000    0.9083740000000000 Zn
   0.1503680000000000    0.8393070000000000    0.1120590000000000 Zn
   0.8436380000000000    0.1688520000000000    0.3713410000000000 B
   0.1673410000000000    0.1707960000000000    0.1298920000000000 B
   0.6580180000000000    0.3355920000000000    0.6254070000000000 B
   0.3454290000000000    0.3266110000000000    0.8850950000000000 B
   0.6638130000000000    0.6726460000000000    0.1337410000000000 B
   0.8445970000000000    0.8311450000000000    0.8741780000000000 B
   0.3400070000000000    0.6704290000000001    0.3671930000000000 B
   0.1520920000000000    0.8263420000000000    0.6230010000000000 B
   0.7049810000000000    0.0365860000000000    0.3488570000000000 O
   0.9032720000000000    0.1692310000000000    0.0987910000000000 O
   0.3104940000000000    0.0381510000000000    0.1309280000000000 O
   0.7807450000000000    0.1981950000000000    0.6491360000000000 O
   0.7230150000000000    0.3070400000000000    0.3569640000000000 O
   0.2231230000000000    0.1911340000000000    0.8541260000000001 O
   0.1106630000000000    0.1617640000000000    0.4041350000000000 O
   0.6052090000000000    0.3258210000000000    0.9251770000000000 O
   0.8106600000000000    0.4670150000000000    0.6207750000000000 O
   0.2934350000000000    0.3064670000000000    0.1622210000000000 O
   0.3838550000000000    0.3448650000000000    0.6095000000000000 O
   0.7988300000000000    0.5393500000000000    0.1537570000000000 O
   0.2108010000000000    0.4604630000000000    0.8784340000000000 O
   0.7135640000000000    0.7000400000000000    0.8381459999999999 O
   0.6052270000000000    0.6653860000000000    0.3889290000000000 O
   0.1969470000000000    0.5332740000000000    0.3640180000000000 O
   0.3971540000000000    0.6645170000000000    0.0970250000000000 O
   0.7818830000000000    0.8107430000000000    0.1472840000000000 O
   0.8817880000000000    0.8353100000000000    0.5927950000000000 O
   0.2639160000000000    0.6827550000000000    0.6376030000000000 O
   0.2072170000000000    0.8047370000000000    0.3480240000000000 O
   0.7123560000000000    0.9675480000000000    0.8631380000000000 O
   0.1056170000000000    0.8280950000000000    0.9167930000000000 O
   0.2972200000000000    0.9566260000000000    0.6370370000000000 O
