pymatgen with grid density = 1259 / number of atoms
0
Gamma
2 3 2
