Li2 Sn20 P14 O56
1.0
  14.2603390000000001   -5.4353499999999997    0.0000000000000000
  14.2603390000000001    5.4353499999999997    0.0000000000000000
  12.1886469999999996    0.0000000000000000    9.1835280000000008
Li Sn P O
2 20 14 56
direct
   0.8286690000000000    0.8286690000000000    0.8286690000000000 Li
   0.3286690000000000    0.3286690000000000    0.3286690000000000 Li
   0.9234329999999999    0.9324280000000000    0.3508830000000000 Sn
   0.9333230000000000    0.5016119999999999    0.5652370000000000 Sn
   0.5652370000000000    0.9333230000000000    0.5016119999999999 Sn
   0.9987410000000000    0.9987410000000000    0.9987410000000000 Sn
   0.9324280000000000    0.3508830000000000    0.9234329999999999 Sn
   0.5016119999999999    0.5652370000000000    0.9333230000000000 Sn
   0.5803500000000000    0.5504970000000000    0.1493740000000000 Sn
   0.3508830000000000    0.9234329999999999    0.9324280000000000 Sn
   0.8508829999999999    0.4324280000000000    0.4234330000000000 Sn
   0.4234330000000000    0.8508829999999999    0.4324280000000000 Sn
   0.4987410000000000    0.4987410000000000    0.4987410000000000 Sn
   0.5504970000000000    0.1493740000000000    0.5803500000000000 Sn
   0.1493740000000000    0.5803500000000000    0.5504970000000000 Sn
   0.4324280000000000    0.4234330000000000    0.8508829999999999 Sn
   0.6493740000000000    0.0504970000000000    0.0803500000000000 Sn
   0.4333230000000000    0.0652370000000000    0.0016120000000000 Sn
   0.0803500000000000    0.6493740000000000    0.0504970000000000 Sn
   0.0016120000000000    0.4333230000000000    0.0652370000000000 Sn
   0.0652370000000000    0.0016120000000000    0.4333230000000000 Sn
   0.0504970000000000    0.0803500000000000    0.6493740000000000 Sn
   0.7302390000000000    0.7302390000000000    0.7302390000000000 P
   0.7443190000000000    0.7015760000000000    0.1545440000000000 P
   0.8060670000000000    0.7713020000000000    0.3124300000000000 P
   0.8124300000000000    0.2713020000000000    0.3060670000000000 P
   0.6545440000000000    0.2015760000000000    0.2443190000000000 P
   0.3060670000000000    0.8124300000000000    0.2713020000000000 P
   0.2443190000000000    0.6545440000000000    0.2015760000000000 P
   0.7015760000000000    0.1545440000000000    0.7443190000000000 P
   0.7713020000000000    0.3124300000000000    0.8060670000000000 P
   0.3124300000000000    0.8060670000000000    0.7713020000000000 P
   0.2015760000000000    0.2443190000000000    0.6545440000000000 P
   0.1545440000000000    0.7443190000000000    0.7015760000000000 P
   0.2713020000000000    0.3060670000000000    0.8124300000000000 P
   0.2302390000000000    0.2302390000000000    0.2302390000000000 P
   0.8168560000000000    0.8127500000000000    0.3703710000000000 O
   0.8626920000000000    0.7718050000000000    0.5956750000000000 O
   0.6931440000000000    0.6931440000000000    0.6931440000000000 O
   0.8127500000000000    0.3703710000000000    0.8168560000000000 O
   0.5956750000000000    0.8626920000000000    0.7718050000000000 O
   0.7718050000000000    0.5956750000000000    0.8626920000000000 O
   0.8934660000000000    0.6015370000000000    0.1676350000000000 O
   0.8708990000000000    0.8473070000000000    0.1418880000000000 O
   0.8778589999999999    0.3300830000000000    0.1379510000000000 O
   0.8121000000000000    0.1414260000000000    0.1354110000000000 O
   0.7786480000000000    0.6820920000000000    0.0439810000000000 O
   0.3703710000000000    0.8168560000000000    0.8127500000000000 O
   0.8887460000000000    0.6034440000000000    0.3628400000000000 O
   0.6902050000000000    0.8634770000000001    0.1001670000000000 O
   0.8703710000000000    0.3127500000000000    0.3168560000000000 O
   0.6001670000000000    0.3634770000000000    0.1902050000000000 O
   0.8628400000000001    0.1034440000000000    0.3887460000000000 O
   0.3887460000000000    0.8628400000000001    0.1034440000000000 O
   0.3934660000000000    0.6676350000000000    0.1015370000000000 O
   0.6354109999999999    0.6414260000000001    0.3121000000000000 O
   0.6379510000000000    0.8300830000000000    0.3778590000000000 O
   0.6418880000000000    0.3473070000000000    0.3708990000000000 O
   0.6676350000000000    0.1015370000000000    0.3934660000000000 O
   0.8634770000000001    0.1001670000000000    0.6902050000000000 O
   0.8300830000000000    0.3778590000000000    0.6379510000000000 O
   0.3168560000000000    0.8703710000000000    0.3127500000000000 O
   0.3708990000000000    0.6418880000000000    0.3473070000000000 O
   0.1354110000000000    0.8121000000000000    0.1414260000000000 O
   0.6414260000000001    0.3121000000000000    0.6354109999999999 O
   0.8473070000000000    0.1418880000000000    0.8708990000000000 O
   0.6820920000000000    0.0439810000000000    0.7786480000000000 O
   0.1379510000000000    0.8778589999999999    0.3300830000000000 O
   0.1902050000000000    0.6001670000000000    0.3634770000000000 O
   0.3628400000000000    0.8887460000000000    0.6034440000000000 O
   0.3634770000000000    0.1902050000000000    0.6001670000000000 O
   0.3473070000000000    0.3708990000000000    0.6418880000000000 O
   0.3121000000000000    0.6354109999999999    0.6414260000000001 O
   0.6015370000000000    0.1676350000000000    0.8934660000000000 O
   0.6034440000000000    0.3628400000000000    0.8887460000000000 O
   0.1676350000000000    0.8934660000000000    0.6015370000000000 O
   0.3778590000000000    0.6379510000000000    0.8300830000000000 O
   0.0439810000000000    0.7786480000000000    0.6820920000000000 O
   0.3300830000000000    0.1379510000000000    0.8778589999999999 O
   0.1015370000000000    0.3934660000000000    0.6676350000000000 O
   0.3127500000000000    0.3168560000000000    0.8703710000000000 O
   0.5439810000000000    0.1820920000000000    0.2786480000000000 O
   0.1414260000000000    0.1354110000000000    0.8121000000000000 O
   0.1418880000000000    0.8708990000000000    0.8473070000000000 O
   0.1001670000000000    0.6902050000000000    0.8634770000000001 O
   0.1034440000000000    0.3887460000000000    0.8628400000000001 O
   0.3626920000000000    0.0956750000000000    0.2718050000000000 O
   0.2718050000000000    0.3626920000000000    0.0956750000000000 O
   0.2786480000000000    0.5439810000000000    0.1820920000000000 O
   0.1931440000000000    0.1931440000000000    0.1931440000000000 O
   0.0956750000000000    0.2718050000000000    0.3626920000000000 O
   0.1820920000000000    0.2786480000000000    0.5439810000000000 O
