Li1 Mg1 H14 Cl3 O7
1.0
   6.6761470000000003    0.0000000000000000    0.0000000000000000
   0.2149320000000000    6.6861379999999997    0.0000000000000000
   0.2196740000000000    0.2148960000000000    6.8874529999999998
Li Mg H Cl O
1 1 14 3 7
direct
   0.5614120000000000    0.5616350000000000    0.5641540000000000 Li
   0.1534520000000000    0.1539710000000000    0.1531910000000000 Mg
   0.4960750000000000    0.9337140000000000    0.2376570000000000 H
   0.2369810000000000    0.4952140000000000    0.9406030000000000 H
   0.9374980000000001    0.2342060000000000    0.4904390000000000 H
   0.2262490000000000    0.9223990000000000    0.8210160000000000 H
   0.8174180000000000    0.2297430000000000    0.9263760000000000 H
   0.9197580000000000    0.8136650000000000    0.2263080000000000 H
   0.4873170000000000    0.1119640000000000    0.3832920000000000 H
   0.3889620000000000    0.4900570000000000    0.1131000000000000 H
   0.1139140000000000    0.3858990000000000    0.4845390000000000 H
   0.3529080000000000    0.1175630000000000    0.8080230000000000 H
   0.8012750000000000    0.3591730000000000    0.1142190000000000 H
   0.1139200000000000    0.8041530000000000    0.3515110000000000 H
   0.8728170000000000    0.7087360000000000    0.7049410000000000 H
   0.6993050000000000    0.8722050000000000    0.7157030000000000 H
   0.6383130000000000    0.2103800000000000    0.6471209999999999 Cl
   0.6385850000000000    0.6315660000000000    0.2312930000000000 Cl
   0.2093680000000000    0.6454640000000000    0.6423910000000000 Cl
   0.4295950000000000    0.0644770000000000    0.2639170000000000 O
   0.2672650000000000    0.4286430000000000    0.0657690000000000 O
   0.0665050000000000    0.2642760000000000    0.4249740000000000 O
   0.7264699999999999    0.7266680000000000    0.7153320000000000 O
   0.2396390000000000    0.0544430000000000    0.8780730000000000 O
   0.8727950000000000    0.2434790000000000    0.0552910000000000 O
   0.0513640000000000    0.8735660000000000    0.2400270000000000 O
