ALGO = Fast
EDIFF = 0.0036000000000000003
ENCUT = 520
IBRION = 2
ISIF = 3
ISMEAR = -5
ISPIN = 2
LASPH = True
LMAXMIX = 6
LORBIT = 11
LREAL = Auto
LWAVE = False
MAGMOM = 4*0.0 1*0.004 1*0.621 1*0.004 2*0.621 1*0.004 1*0.621 1*0.004 1*0.002 1*0.004 2*0.006 1*0.004 2*0.002 1*0.004 2*0.006 1*0.004 1*0.002 1*0.02 1*0.002 1*0.005 1*0.001 1*0.003 1*-0.0 1*0.007 1*0.005 1*0.013 1*0.032 4*0.002 1*0.032 1*0.013 1*0.007 1*0.005 1*-0.0 1*0.003 1*0.001 1*0.002 1*0.005 2*0.02 1*0.005 1*0.002 1*0.001 1*0.003 1*-0.0 1*0.005 1*0.007 1*0.013 1*0.032 4*0.002 1*0.032 1*0.013 1*0.005 1*0.007 1*-0.0 1*0.003 1*0.001 1*0.005 1*0.002 1*0.02
NELM = 100
NSW = 99
PREC = Accurate
SIGMA = 0.05
