ALGO = Fast
EDIFF = 0.002
ENCUT = 520
IBRION = 2
ISIF = 3
ISMEAR = -5
ISPIN = 2
LASPH = True
LORBIT = 11
LREAL = Auto
LWAVE = False
MAGMOM = 4*0.005 4*-0.0 4*0.001 4*0.269 4*0.175 4*0.0 4*0.02 4*0.005 4*0.042 4*0.003
NELM = 100
NSW = 99
PREC = Accurate
SIGMA = 0.05
