pymatgen with grid density = 1195 / number of atoms
0
Gamma
3 4 1
