Li4 C8 S8 N4 O16 F24
1.0
   5.5290150000000002    0.0000000000000000    0.0000000000000000
   0.0000000000000000    9.8253269999999997    0.0000000000000000
   0.0000000000000000    0.0000000000000000   16.5946309999999997
Li C S N O F
4 8 8 4 16 24
direct
   0.2500000000000000    0.3451980000000000    0.7500000000000000 Li
   0.7500000000000000    0.6548020000000000    0.2500000000000000 Li
   0.2500000000000000    0.8451980000000000    0.7500000000000000 Li
   0.7500000000000000    0.1548020000000000    0.2500000000000000 Li
   0.7496690000000000    0.0936660000000000    0.9079290000000000 C
   0.7503310000000000    0.0936660000000000    0.5920710000000000 C
   0.7496690000000000    0.5936660000000000    0.5920710000000000 C
   0.2503310000000000    0.9063340000000000    0.0920710000000000 C
   0.2496690000000000    0.9063340000000000    0.4079290000000000 C
   0.7503310000000000    0.5936660000000000    0.9079290000000000 C
   0.2496690000000000    0.4063340000000000    0.0920710000000000 C
   0.2503310000000000    0.4063340000000000    0.4079290000000000 C
   0.0702760000000000    0.4183270000000000    0.3120170000000000 S
   0.4297240000000000    0.9183270000000000    0.3120170000000000 S
   0.9297240000000000    0.0816730000000000    0.8120170000000000 S
   0.5702760000000000    0.0816730000000000    0.6879830000000000 S
   0.5702760000000000    0.5816730000000000    0.8120170000000000 S
   0.0702760000000000    0.9183270000000000    0.1879830000000000 S
   0.9297240000000000    0.5816730000000000    0.6879830000000000 S
   0.4297240000000000    0.4183270000000000    0.1879830000000000 S
   0.2500000000000000    0.9860970000000000    0.2500000000000000 N
   0.7500000000000000    0.5139030000000000    0.7500000000000000 N
   0.2500000000000000    0.4860970000000000    0.2500000000000000 N
   0.7500000000000000    0.0139030000000000    0.7500000000000000 N
   0.1178480000000000    0.4828750000000000    0.6702450000000000 O
   0.8821520000000000    0.0171250000000000    0.1702450000000000 O
   0.1178480000000000    0.9828750000000001    0.8297550000000000 O
   0.5030650000000000    0.2793030000000000    0.2044770000000000 O
   0.8821520000000000    0.5171249999999999    0.3297550000000000 O
   0.0030650000000000    0.2206970000000000    0.7955230000000000 O
   0.4969350000000000    0.2206970000000000    0.7044770000000000 O
   0.3821520000000000    0.4828750000000000    0.8297550000000000 O
   0.5030650000000000    0.7793030000000000    0.2955230000000000 O
   0.9969350000000000    0.2793030000000000    0.2955230000000000 O
   0.9969350000000000    0.7793030000000000    0.2044770000000000 O
   0.3821520000000000    0.9828750000000001    0.6702450000000000 O
   0.4969350000000000    0.7206970000000000    0.7955230000000000 O
   0.6178480000000000    0.5171249999999999    0.1702450000000000 O
   0.6178480000000000    0.0171250000000000    0.3297550000000000 O
   0.0030650000000000    0.7206970000000000    0.7044770000000000 O
   0.6718350000000000    0.4693310000000000    0.5699010000000000 F
   0.6086890000000000    0.1457360000000000    0.5335950000000000 F
   0.3913110000000000    0.3542640000000000    0.0335950000000000 F
   0.1718350000000000    0.0306690000000000    0.4300990000000000 F
   0.4426280000000000    0.8238450000000000    0.1033390000000000 F
   0.8913110000000000    0.1457360000000000    0.9664050000000000 F
   0.6086890000000000    0.6457360000000000    0.9664050000000000 F
   0.1086890000000000    0.8542640000000000    0.0335950000000000 F
   0.1718350000000000    0.5306689999999999    0.0699010000000000 F
   0.0573720000000000    0.3238450000000000    0.1033390000000000 F
   0.6718350000000000    0.9693310000000001    0.9300990000000000 F
   0.8913110000000000    0.6457360000000000    0.5335950000000000 F
   0.3281650000000000    0.0306690000000000    0.0699010000000000 F
   0.5573720000000000    0.6761550000000000    0.6033390000000000 F
   0.9426280000000000    0.1761550000000000    0.6033390000000000 F
   0.0573720000000000    0.8238450000000000    0.3966610000000000 F
   0.9426280000000000    0.6761550000000000    0.8966610000000000 F
   0.8281650000000000    0.4693310000000000    0.9300990000000000 F
   0.8281650000000000    0.9693310000000001    0.5699010000000000 F
   0.3913110000000000    0.8542640000000000    0.4664050000000000 F
   0.1086890000000000    0.3542640000000000    0.4664050000000000 F
   0.4426280000000000    0.3238450000000000    0.3966610000000000 F
   0.5573720000000000    0.1761550000000000    0.8966610000000000 F
   0.3281650000000000    0.5306689999999999    0.4300990000000000 F
