Li24 Er4 B12 O36
1.0
  16.2719881099999988    0.0000000000000000    0.0000000000000000
   0.0000000000000000    6.5676150900000003   -0.0323410300000000
   0.0000000000000000    1.8804732000000000    6.8525410500000001
Li Er B O
24 4 12 36
direct
   0.9651482300000001    0.9445066600000001    0.1964555100000000 Li
   0.0348517700000000    0.0554933400000000    0.8035444899999999 Li
   0.4651482300000000    0.5554933399999999    0.8035444899999999 Li
   0.5348517699999999    0.4445066600000000    0.1964555100000000 Li
   0.5541262300000001    0.9131335300000000    0.6336413500000000 Li
   0.4458737700000000    0.0868664700000000    0.3663586500000000 Li
   0.0541262300000000    0.5868664700000000    0.3663586500000000 Li
   0.9458737699999999    0.4131335300000000    0.6336413500000000 Li
   0.4704823600000000    0.8291193400000000    0.0444917100000000 Li
   0.5295176400000000    0.1708806600000000    0.9555082900000000 Li
   0.9704823600000000    0.6708806600000000    0.9555082900000000 Li
   0.0295176400000000    0.3291193400000000    0.0444917100000000 Li
   0.7055211000000000    0.8667160400000000    0.7861279500000000 Li
   0.2944789000000000    0.1332839600000000    0.2138720500000000 Li
   0.2055211000000000    0.6332839600000000    0.2138720500000000 Li
   0.7944789000000000    0.3667160400000000    0.7861279500000000 Li
   0.7948615600000000    0.9553937800000000    0.0636657100000000 Li
   0.2051384400000000    0.0446062200000000    0.9363342900000000 Li
   0.2948615600000000    0.5446062200000000    0.9363342900000000 Li
   0.7051384400000000    0.4553937800000000    0.0636657100000000 Li
   0.9957048500000000    0.8231325000000000    0.5714966800000000 Li
   0.0042951500000000    0.1768675000000000    0.4285033200000000 Li
   0.4957048500000000    0.6768675000000000    0.4285033200000000 Li
   0.5042951500000000    0.3231325000000000    0.5714966800000000 Li
   0.6903100400000000    0.6534356900000000    0.4211411400000000 Er
   0.3096899600000000    0.3465643100000000    0.5788588600000000 Er
   0.1903100400000000    0.8465643100000000    0.5788588600000000 Er
   0.8096899600000000    0.1534356900000000    0.4211411400000000 Er
   0.8787056400000000    0.0006172600000000    0.7871474500000000 B
   0.1212943600000000    0.9993827400000000    0.2128525500000000 B
   0.3787056400000000    0.4993827400000000    0.2128525500000000 B
   0.6212943600000000    0.5006172600000000    0.7871474500000000 B
   0.6156664800000000    0.8114489700000000    0.0608696100000000 B
   0.3843335200000000    0.1885510300000000    0.9391303900000000 B
   0.1156664800000000    0.6885510300000000    0.9391303900000000 B
   0.8843335200000000    0.3114489700000000    0.0608696100000000 B
   0.8645833300000000    0.6620405900000000    0.4151703100000000 B
   0.1354166700000000    0.3379594100000000    0.5848296900000000 B
   0.3645833300000000    0.8379594100000000    0.5848296900000000 B
   0.6354166700000000    0.1620405900000000    0.4151703100000000 B
   0.9474902500000000    0.6754149699999999    0.4099329100000000 O
   0.0525097500000000    0.3245850300000000    0.5900670900000000 O
   0.4474902500000000    0.8245850300000001    0.5900670900000000 O
   0.5525097500000000    0.1754149700000000    0.4099329100000000 O
   0.6990947300000000    0.7707798300000001    0.0811081400000000 O
   0.3009052700000000    0.2292201700000000    0.9188918600000000 O
   0.1990947300000000    0.7292201699999999    0.9188918600000000 O
   0.8009052700000000    0.2707798300000000    0.0811081400000000 O
   0.8143789400000000    0.8364825100000000    0.3545779300000000 O
   0.1856210600000000    0.1635174900000000    0.6454220700000000 O
   0.3143789400000000    0.6635174900000000    0.6454220700000000 O
   0.6856210600000000    0.3364825100000000    0.3545779300000000 O
   0.5682596900000000    0.7298727500000000    0.2248060200000000 O
   0.4317403100000000    0.2701272500000000    0.7751939799999999 O
   0.0682596900000000    0.7701272500000000    0.7751939799999999 O
   0.9317403100000000    0.2298727500000000    0.2248060200000000 O
   0.4113614900000000    0.5867705400000000    0.0337839400000000 O
   0.5886385100000000    0.4132294600000000    0.9662160600000000 O
   0.9113614900000000    0.9132294600000000    0.9662160600000000 O
   0.0886385100000000    0.0867705400000000    0.0337839400000000 O
   0.5794184100000001    0.9245543800000000    0.8917002000000001 O
   0.4205815900000000    0.0754456200000000    0.1082998000000000 O
   0.0794184100000000    0.5754456200000000    0.1082998000000000 O
   0.9205815899999999    0.4245543800000000    0.8917002000000001 O
   0.4258312600000000    0.4572447200000000    0.3809403900000000 O
   0.5741687400000000    0.5427552800000000    0.6190596100000000 O
   0.9258312600000000    0.0427552800000000    0.6190596100000000 O
   0.0741687400000000    0.9572447200000000    0.3809403900000000 O
   0.6742205400000000    0.9703607500000000    0.4924613000000000 O
   0.3257794600000000    0.0296392500000000    0.5075387000000000 O
   0.1742205400000000    0.5296392500000000    0.5075387000000000 O
   0.8257794600000000    0.4703607500000000    0.4924613000000000 O
   0.2034164700000000    0.9413603500000000    0.2396512800000000 O
   0.7965835300000000    0.0586396500000000    0.7603487200000000 O
   0.7034164700000000    0.5586396500000000    0.7603487200000000 O
   0.2965835300000000    0.4413603500000000    0.2396512800000000 O
