ALGO = Fast
EDIFF = 0.0016
ENCUT = 520
IBRION = 2
ISIF = 3
ISMEAR = -5
ISPIN = 2
LASPH = True
LMAXMIX = 6
LORBIT = 11
LREAL = Auto
LWAVE = False
MAGMOM = 1*0.0 1*0.855 4*-0.0 2*0.001 1*0.0 1*0.001 1*0.0 1*0.001 5*0.0 1*-0.006 1*0.0 1*-0.006 4*0.002 3*0.0 1*-0.014 2*0.0 2*-0.006
NELM = 100
NSW = 99
PREC = Accurate
SIGMA = 0.05
