pymatgen with grid density = 1542 / number of atoms
0
Gamma
2 2 5
