Li2 Sm2 S4 O16
1.0
   7.6316439999999997    0.0000000000000000    0.0000000000000000
   0.0000000000000000    7.6316439999999997    0.0000000000000000
   0.0000000000000000    0.0000000000000000    6.0468289999999998
Li Sm S O
2 2 4 16
direct
   0.0000000000000000    0.5000000000000000    0.7500000000000000 Li
   0.5000000000000000    0.0000000000000000    0.2500000000000000 Li
   0.0000000000000000    0.5000000000000000    0.2500000000000000 Sm
   0.5000000000000000    0.0000000000000000    0.7500000000000000 Sm
   0.2217370000000000    0.2782630000000000    0.7500000000000000 S
   0.7782630000000000    0.7217370000000000    0.7500000000000000 S
   0.7217370000000000    0.2217370000000000    0.2500000000000000 S
   0.2782630000000000    0.7782630000000000    0.2500000000000000 S
   0.1843180000000000    0.4126300000000000    0.9272390000000000 O
   0.8156820000000000    0.5873699999999999    0.9272390000000000 O
   0.6843180000000000    0.0873700000000000    0.4272390000000000 O
   0.3156820000000000    0.9126300000000001    0.4272390000000000 O
   0.5873699999999999    0.1843180000000000    0.0727610000000000 O
   0.4126300000000000    0.8156820000000000    0.0727610000000000 O
   0.0873700000000000    0.3156820000000000    0.5727610000000000 O
   0.9126300000000001    0.6843180000000000    0.5727610000000000 O
   0.2056150000000000    0.0993940000000000    0.8427040000000000 O
   0.7943850000000000    0.9006060000000000    0.8427040000000000 O
   0.7056150000000000    0.4006060000000000    0.3427040000000000 O
   0.2943850000000000    0.5993940000000000    0.3427040000000000 O
   0.0993940000000000    0.7943850000000000    0.1572960000000000 O
   0.9006060000000000    0.2056150000000000    0.1572960000000000 O
   0.5993940000000000    0.7056150000000000    0.6572960000000000 O
   0.4006060000000000    0.2943850000000000    0.6572960000000000 O
