Li1 Mg6 Si1 O8
1.0
   8.5501637000000006   -0.0000000000000000    0.0000000000000000
  -0.0000000000000000    4.2111676200000003    0.0000000000000000
   0.0000000000000000    0.0000000000000000    4.2111676200000003
Li Mg Si O
1 6 1 8
direct
  -0.0000000000000000    0.0000000000000000   -0.0000000000000000 Li
   0.5000000000000000    0.0000000000000000   -0.0000000000000000 Mg
   0.5000000000000000    0.5000000000000000    0.5000000000000000 Mg
   0.2461637400000000   -0.0000000000000000    0.5000000000000000 Mg
   0.7538362600000000    0.0000000000000000    0.5000000000000000 Mg
   0.2461637400000000    0.5000000000000000   -0.0000000000000000 Mg
   0.7538362600000000    0.5000000000000000    0.0000000000000000 Mg
  -0.0000000000000000    0.5000000000000000    0.5000000000000000 Si
   0.2569218500000000    0.0000000000000000    0.0000000000000000 O
   0.7430781500000000   -0.0000000000000000   -0.0000000000000000 O
   0.2377239700000000    0.5000000000000000    0.5000000000000000 O
   0.7622760300000000    0.5000000000000000    0.5000000000000000 O
  -0.0000000000000000    0.0000000000000000    0.5000000000000000 O
   0.5000000000000000    0.0000000000000000    0.5000000000000000 O
  -0.0000000000000000    0.5000000000000000   -0.0000000000000000 O
   0.5000000000000000    0.5000000000000000   -0.0000000000000000 O
