Li4 Sb1 Te3 O12
1.0
   5.3020360000000002    0.0000000000000000    0.0000000000000000
  -0.0023350000000000    5.6085560000000001    0.0000000000000000
  -0.0001560000000000   -0.5975610000000000    7.7049089999999998
Li Sb Te O
4 1 3 12
direct
   0.9933280000000000    0.4200480000000000    0.2865270000000000 Li
   0.5054990000000000    0.9217840000000000    0.7927330000000000 Li
   0.0035250000000000    0.4534990000000000    0.7789550000000000 Li
   0.4978330000000000    0.9507870000000000    0.2692570000000000 Li
   0.0003450000000000    0.9963710000000000    0.0017220000000000 Sb
   0.9999300000000000    0.9962560000000000    0.5024310000000000 Te
   0.5004800000000000    0.4919040000000000    0.0039770000000000 Te
   0.4988480000000000    0.4944480000000000    0.5035520000000000 Te
   0.2957780000000000    0.1767110000000000    0.4231480000000000 O
   0.1379350000000000    0.0098020000000000    0.7425140000000000 O
   0.3207540000000000    0.8307500000000000    0.0541350000000000 O
   0.1693040000000000    0.7002900000000000    0.4251650000000000 O
   0.8082750000000000    0.7010480000000000    0.9229110000000000 O
   0.3743980000000000    0.5156010000000000    0.7553490000000000 O
   0.6262750000000000    0.5133810000000000    0.2476970000000000 O
   0.1711690000000000    0.3171920000000000    0.0588980000000000 O
   0.8464830000000000    0.3155180000000000    0.5569820000000000 O
   0.6974140000000000    0.1862260000000000    0.9273280000000000 O
   0.8653210000000000    0.0233410000000000    0.2559120000000000 O
   0.6871050000000000    0.8426430000000000    0.5620090000000000 O
