Li8 Sb8 P16 O56
1.0
  16.8850699999999989    0.0000000000000000    0.0000000000000000
   0.0000000000000000    8.4273229999999995    0.0000000000000000
   0.0000000000000000    0.3368080000000000    8.5256229999999995
Li Sb P O
8 8 16 56
direct
   0.9471610000000000    0.6935340000000000    0.2415460000000000 Li
   0.5528390000000000    0.6935340000000000    0.7415460000000000 Li
   0.2521240000000000    0.8415880000000000    0.1925240000000000 Li
   0.2478760000000000    0.8415880000000000    0.6925240000000000 Li
   0.7521240000000000    0.1584120000000000    0.3074760000000000 Li
   0.7478760000000000    0.1584120000000000    0.8074760000000000 Li
   0.4471610000000000    0.3064660000000000    0.2584540000000000 Li
   0.0528390000000000    0.3064660000000000    0.7584540000000000 Li
   0.3748580000000000    0.6499080000000000    0.4635850000000000 Sb
   0.1251420000000000    0.6499080000000000    0.9635850000000000 Sb
   0.6348580000000000    0.8600850000000000    0.0408000000000000 Sb
   0.8651420000000000    0.8600850000000000    0.5407999999999999 Sb
   0.1348580000000000    0.1399150000000000    0.4592000000000000 Sb
   0.3651420000000000    0.1399150000000000    0.9592000000000001 Sb
   0.8748580000000000    0.3500920000000000    0.0364150000000000 Sb
   0.6251420000000000    0.3500920000000000    0.5364150000000000 Sb
   0.3227090000000000    0.5288290000000000    0.0795590000000000 P
   0.1772910000000000    0.5288290000000000    0.5795590000000000 P
   0.5737090000000000    0.7448250000000000    0.4170300000000000 P
   0.9262910000000000    0.7448250000000000    0.9170300000000000 P
   0.0837810000000000    0.7539720000000000    0.3628930000000000 P
   0.4162190000000000    0.7539720000000000    0.8628930000000000 P
   0.8209520000000000    0.9554200000000000    0.0996540000000000 P
   0.6790480000000000    0.9554200000000000    0.5996540000000000 P
   0.3209520000000000    0.0445800000000000    0.4003460000000000 P
   0.1790480000000000    0.0445800000000000    0.9003460000000000 P
   0.5837810000000000    0.2460280000000000    0.1371070000000000 P
   0.9162190000000000    0.2460280000000000    0.6371070000000000 P
   0.0737090000000000    0.2551750000000000    0.0829700000000000 P
   0.4262910000000000    0.2551750000000000    0.5829700000000000 P
   0.8227090000000000    0.4711710000000000    0.4204410000000000 P
   0.6772910000000000    0.4711710000000000    0.9204410000000000 P
   0.2428880000000000    0.5298510000000000    0.9971640000000001 O
   0.2571120000000000    0.5298510000000000    0.4971640000000000 O
   0.9202750000000000    0.5935460000000000    0.0251230000000000 O
   0.5797250000000000    0.5935460000000000    0.5251230000000000 O
   0.1089970000000000    0.5944750000000000    0.4622830000000000 O
   0.3910030000000000    0.5944750000000000    0.9622830000000000 O
   0.3213070000000000    0.6424310000000000    0.2166270000000000 O
   0.1786930000000000    0.6424310000000000    0.7166270000000000 O
   0.8538260000000000    0.6403330000000000    0.3787730000000000 O
   0.6461740000000000    0.6403330000000000    0.8787730000000000 O
   0.0674980000000000    0.6864770000000000    0.1994130000000000 O
   0.4325020000000000    0.6864770000000000    0.6994130000000000 O
   0.6344540000000000    0.7566950000000000    0.2829670000000000 O
   0.8655460000000000    0.7566950000000000    0.7829670000000000 O
   0.4892890000000000    0.7782310000000000    0.3636850000000000 O
   0.0107110000000000    0.7782310000000000    0.8636850000000000 O
   0.0055070000000000    0.8117370000000000    0.4266020000000000 O
   0.4944930000000000    0.8117370000000000    0.9266020000000000 O
   0.7553240000000000    0.8324950000000000    0.0653970000000000 O
   0.7446760000000000    0.8324950000000000    0.5653970000000000 O
   0.1528550000000000    0.8745720000000000    0.3624540000000000 O
   0.3471450000000000    0.8745720000000000    0.8624540000000001 O
   0.9041350000000000    0.8764999999999999    0.0493580000000000 O
   0.3090250000000000    0.8931440000000000    0.5040040000000000 O
   0.5958650000000000    0.8764999999999999    0.5493580000000000 O
   0.1909750000000000    0.8931440000000000    0.0040040000000000 O
   0.8283250000000000    0.9903750000000000    0.2725750000000000 O
   0.6716750000000000    0.9903750000000000    0.7725750000000000 O
   0.3283250000000000    0.0096250000000000    0.2274250000000000 O
   0.1716750000000000    0.0096250000000000    0.7274250000000000 O
   0.8090250000000000    0.1068560000000000    0.9959960000000000 O
   0.4041350000000000    0.1235000000000000    0.4506420000000000 O
   0.6909750000000000    0.1068560000000000    0.4959960000000000 O
   0.0958650000000000    0.1235000000000000    0.9506420000000000 O
   0.6528550000000000    0.1254280000000000    0.1375460000000000 O
   0.8471450000000000    0.1254280000000000    0.6375459999999999 O
   0.2553240000000000    0.1675050000000000    0.4346030000000000 O
   0.2446760000000000    0.1675050000000000    0.9346030000000000 O
   0.5055070000000000    0.1882630000000000    0.0733980000000000 O
   0.9944930000000000    0.1882630000000000    0.5733980000000000 O
   0.9892890000000000    0.2217690000000000    0.1363150000000000 O
   0.5107110000000000    0.2217690000000000    0.6363150000000000 O
   0.1344540000000000    0.2433050000000000    0.2170330000000000 O
   0.3655460000000000    0.2433050000000000    0.7170330000000000 O
   0.5674979999999999    0.3135230000000000    0.3005870000000000 O
   0.9325020000000001    0.3135230000000000    0.8005870000000000 O
   0.3538260000000000    0.3596670000000000    0.1212270000000000 O
   0.1461740000000000    0.3596670000000000    0.6212270000000000 O
   0.8213070000000000    0.3575690000000000    0.2833730000000000 O
   0.6786930000000000    0.3575690000000000    0.7833730000000000 O
   0.6089970000000000    0.4055250000000000    0.0377170000000000 O
   0.8910030000000000    0.4055250000000000    0.5377170000000000 O
   0.4202750000000000    0.4064540000000000    0.4748770000000000 O
   0.0797250000000000    0.4064540000000000    0.9748770000000000 O
   0.7428880000000000    0.4701490000000000    0.5028359999999999 O
   0.7571120000000000    0.4701490000000000    0.0028360000000000 O
