K6 Li2 Mg8 Si24 O60
1.0
   5.2120020000000000   -9.0415430000000008    0.0000000000000000
   5.2120020000000000    9.0415430000000008    0.0000000000000000
   0.0000000000000000    0.0000000000000000   14.0321960000000008
K Li Mg Si O
6 2 8 24 60
direct
   0.6672630000000001    0.3312520000000000    0.5000030000000000 K
   0.0000000000000000    0.0000000000000000    0.2500050000000000 K
   0.6687480000000000    0.3327370000000000    0.0000030000000000 K
   0.3312520000000000    0.6672630000000001    0.0000030000000000 K
   0.3327370000000000    0.6687480000000000    0.5000030000000000 K
   0.0000000000000000    0.0000000000000000    0.7500050000000000 K
   0.5000000000000000    0.0000000000000000    0.2500630000000000 Li
   0.0000000000000000    0.5000000000000000    0.7500630000000000 Li
   0.6611480000000000    0.3219020000000000    0.2499660000000000 Mg
   0.6780980000000000    0.3388520000000000    0.7499660000000000 Mg
   0.5000000000000000    0.0000000000000000    0.7499900000000000 Mg
   0.3388520000000000    0.6780980000000000    0.2499660000000000 Mg
   0.0000000000000000    0.5000000000000000    0.2499900000000000 Mg
   0.3219020000000000    0.6611480000000000    0.7499660000000000 Mg
   0.5000000000000000    0.5000000000000000    0.2499130000000000 Mg
   0.5000000000000000    0.5000000000000000    0.7499130000000001 Mg
   0.7691820000000000    0.6583410000000000    0.6159090000000000 Si
   0.7674920000000000    0.6578790000000000    0.3838320000000000 Si
   0.8891310000000000    0.6544230000000000    0.8832930000000000 Si
   0.8906230000000001    0.6580589999999999    0.1158580000000000 Si
   0.3416590000000000    0.2308180000000000    0.1159090000000000 Si
   0.3421210000000000    0.2325080000000000    0.8838320000000000 Si
   0.3455770000000000    0.1108690000000000    0.3832930000000000 Si
   0.3419410000000000    0.1093770000000000    0.6158580000000000 Si
   0.8894660000000000    0.2304570000000000    0.3842750000000000 Si
   0.8892900000000000    0.2341810000000000    0.6168040000000000 Si
   0.2341810000000000    0.8892900000000000    0.1168040000000000 Si
   0.2304570000000000    0.8894660000000000    0.8842750000000000 Si
   0.7658190000000000    0.1107100000000000    0.1168040000000000 Si
   0.7695430000000000    0.1105340000000000    0.8842750000000000 Si
   0.1105340000000000    0.7695430000000000    0.3842750000000000 Si
   0.1107100000000000    0.7658190000000000    0.6168040000000000 Si
   0.6544230000000000    0.8891310000000000    0.3832930000000000 Si
   0.6580589999999999    0.8906230000000001    0.6158580000000000 Si
   0.6583410000000000    0.7691820000000000    0.1159090000000000 Si
   0.6578790000000000    0.7674920000000000    0.8838320000000000 Si
   0.1108690000000000    0.3455770000000000    0.8832930000000000 Si
   0.1093770000000000    0.3419410000000000    0.1158580000000000 Si
   0.2308180000000000    0.3416590000000000    0.6159090000000000 Si
   0.2325080000000000    0.3421210000000000    0.3838320000000000 Si
   0.7836670000000000    0.7252700000000000    0.1465680000000000 O
   0.7835690000000000    0.7252350000000000    0.8534990000000000 O
   0.9411020000000000    0.7255260000000000    0.3527560000000000 O
   0.9424270000000000    0.7282170000000000    0.6465300000000000 O
   0.7600400000000000    0.6394680000000000    0.4998400000000000 O
   0.8810560000000000    0.6414160000000000    0.0000010000000000 O
   0.6579560000000000    0.5025620000000000    0.3323150000000000 O
   0.6577930000000000    0.5030630000000000    0.6670010000000000 O
   0.4969370000000000    0.3422070000000000    0.1670010000000000 O
   0.4974380000000000    0.3420440000000000    0.8323150000000000 O
   0.8398710000000000    0.4988840000000000    0.8349930000000000 O
   0.8445340000000000    0.5028270000000000    0.1675580000000000 O
   0.2747650000000000    0.2164310000000000    0.3534990000000000 O
   0.2747300000000000    0.2163330000000000    0.6465680000000000 O
   0.3605320000000000    0.2399600000000000    0.9998400000000000 O
   0.3585840000000000    0.1189440000000000    0.5000010000000000 O
   0.2717830000000000    0.0575730000000000    0.1465300000000000 O
   0.2744740000000000    0.0588980000000000    0.8527560000000000 O
   0.8400530000000000    0.3410860000000000    0.6649310000000000 O
   0.8455310000000000    0.3418910000000000    0.3332340000000000 O
   0.5011160000000000    0.1601290000000000    0.3349930000000000 O
   0.4971730000000000    0.1554660000000000    0.6675580000000000 O
   0.2145080000000000    0.9427900000000000    0.3533170000000000 O
   0.2160320000000000    0.9415519999999999    0.6473430000000000 O
   0.6589140000000000    0.1599470000000000    0.1649310000000000 O
   0.6581090000000001    0.1544690000000000    0.8332340000000000 O
   0.8816010000000000    0.2389360000000000    0.5001860000000000 O
   0.0584480000000000    0.7839680000000000    0.1473430000000000 O
   0.0572100000000000    0.7854920000000000    0.8533170000000000 O
   0.2389360000000000    0.8816000000000001    0.0001860000000000 O
   0.7610640000000000    0.1183990000000000    0.0001860000000000 O
   0.9415519999999999    0.2160320000000000    0.1473430000000000 O
   0.9427900000000000    0.2145080000000000    0.8533170000000000 O
   0.1183990000000000    0.7610640000000000    0.5001860000000000 O
   0.3410860000000000    0.8400530000000000    0.1649310000000000 O
   0.3418910000000000    0.8455310000000000    0.8332340000000000 O
   0.7839680000000000    0.0584480000000000    0.6473430000000000 O
   0.7854920000000000    0.0572100000000000    0.3533170000000000 O
   0.4988840000000000    0.8398710000000000    0.3349930000000000 O
   0.5028270000000000    0.8445340000000000    0.6675580000000000 O
   0.1599470000000000    0.6589140000000000    0.6649310000000000 O
   0.1544690000000000    0.6581090000000001    0.3332340000000000 O
   0.7282170000000000    0.9424270000000000    0.1465300000000000 O
   0.7255260000000000    0.9411020000000000    0.8527560000000000 O
   0.6414160000000000    0.8810560000000000    0.5000010000000000 O
   0.6394680000000000    0.7600400000000000    0.9998400000000000 O
   0.7252350000000000    0.7835690000000000    0.3534990000000000 O
   0.7252700000000000    0.7836670000000000    0.6465680000000000 O
   0.1601290000000000    0.5011160000000000    0.8349930000000000 O
   0.1554660000000000    0.4971730000000000    0.1675580000000000 O
   0.5030630000000000    0.6577930000000000    0.1670010000000000 O
   0.5025620000000000    0.6579560000000000    0.8323150000000000 O
   0.3420440000000000    0.4974380000000000    0.3323150000000000 O
   0.3422070000000000    0.4969370000000000    0.6670010000000000 O
   0.1189440000000000    0.3585840000000000    0.0000010000000000 O
   0.2399600000000000    0.3605320000000000    0.4998400000000000 O
   0.0588980000000000    0.2744740000000000    0.3527560000000000 O
   0.0575730000000000    0.2717830000000000    0.6465300000000000 O
   0.2163330000000000    0.2747300000000000    0.1465680000000000 O
   0.2164310000000000    0.2747650000000000    0.8534990000000000 O
