Li9 Sn9 P12 O48
1.0
   8.6341359999999998    0.0000000000000000    0.0000000000000000
  -0.1573270000000000    9.2293920000000007    0.0000000000000000
  -0.1785430000000000   -0.6033440000000000   13.3863190000000003
Li Sn P O
9 9 12 48
direct
   0.1428840000000000    0.2358590000000000    0.8405700000000000 Li
   0.8565690000000000    0.1024810000000000    0.4879640000000000 Li
   0.3847010000000000    0.7380150000000000    0.8406300000000000 Li
   0.3807380000000000    0.4059120000000000    0.5028410000000000 Li
   0.3590360000000000    0.0524240000000000    0.1738240000000000 Li
   0.6251949999999999    0.9256480000000000    0.8320600000000000 Li
   0.6230230000000000    0.5955450000000000    0.4932570000000000 Li
   0.1218430000000000    0.5751810000000001    0.1784070000000000 Li
   0.8768310000000000    0.7610350000000000    0.1585080000000000 Li
   0.4818550000000000    0.3440440000000000    0.8376600000000000 Sn
   0.5114690000000000    0.9931580000000000    0.4957570000000000 Sn
   0.8706230000000000    0.4494530000000000    0.8085450000000000 Sn
   0.0038770000000000    0.8273060000000000    0.8373560000000000 Sn
   0.0024220000000000    0.5008320000000001    0.4958040000000000 Sn
   0.0080770000000000    0.1660050000000000    0.1718740000000000 Sn
   0.6245520000000000    0.2830300000000000    0.1228150000000000 Sn
   0.1246210000000000    0.8815499999999999    0.5259230000000000 Sn
   0.4988150000000000    0.6714090000000000    0.1674390000000000 Sn
   0.8276030000000000    0.1361770000000000    0.9370360000000000 P
   0.3028390000000000    0.0161760000000000    0.7325150000000000 P
   0.6998160000000000    0.6625630000000000    0.9580990000000000 P
   0.7020090000000000    0.3114110000000000    0.5967740000000000 P
   0.1987900000000000    0.5318870000000000    0.7159460000000000 P
   0.1844060000000000    0.1889320000000000    0.3970790000000000 P
   0.8006710000000000    0.8035830000000000    0.6154260000000000 P
   0.8122380000000000    0.4862100000000000    0.2780150000000000 P
   0.3086100000000000    0.6724120000000000    0.3798460000000000 P
   0.2805230000000000    0.3557850000000000    0.0639640000000000 P
   0.6934320000000000    0.9832760000000000    0.2676110000000000 P
   0.1897720000000000    0.8515630000000000    0.0616660000000000 P
   0.1280050000000000    0.9807760000000000    0.7589380000000000 O
   0.6533710000000000    0.1435810000000000    0.9170380000000000 O
   0.9273749999999999    0.2461130000000000    0.8819640000000000 O
   0.2595350000000000    0.3344900000000000    0.9513680000000000 O
   0.3256450000000000    0.1776130000000000    0.7629550000000000 O
   0.6773940000000001    0.4967450000000000    0.9437420000000000 O
   0.6656590000000000    0.1500320000000000    0.5649910000000000 O
   0.7021390000000000    0.3188450000000000    0.7127230000000000 O
   0.1147770000000000    0.4005000000000000    0.7579550000000000 O
   0.7027650000000000    0.0193840000000000    0.3814650000000000 O
   0.0731150000000000    0.0835660000000000    0.4483890000000000 O
   0.3681240000000000    0.5463560000000000    0.7505550000000000 O
   0.8739330000000000    0.6970740000000000    0.9322570000000000 O
   0.3540330000000000    0.1800830000000000    0.4330710000000000 O
   0.8753780000000000    0.3359380000000000    0.5610710000000000 O
   0.5854720000000000    0.7507890000000000    0.9013210000000000 O
   0.1892860000000000    0.8288910000000000    0.9442670000000000 O
   0.5891840000000000    0.4143610000000000    0.5522840000000000 O
   0.1879270000000000    0.5157100000000000    0.5978000000000000 O
   0.5813970000000001    0.0835570000000000    0.2135550000000000 O
   0.1162920000000000    0.6755810000000000    0.7501190000000000 O
   0.1770150000000000    0.1527720000000000    0.2804260000000000 O
   0.1316430000000000    0.3475460000000000    0.4160930000000000 O
   0.1498360000000000    0.0143510000000000    0.0913140000000000 O
   0.8795240000000000    0.9808560000000000    0.9111050000000001 O
   0.8793900000000000    0.6575460000000000    0.5804950000000000 O
   0.8123050000000001    0.8192550000000000    0.7325670000000000 O
   0.8512090000000000    0.3202000000000000    0.2515850000000000 O
   0.4175550000000000    0.9179980000000000    0.7797760000000000 O
   0.8170750000000000    0.5118460000000000    0.3948880000000000 O
   0.4215850000000000    0.5809630000000000    0.4343810000000000 O
   0.8539200000000000    0.1628670000000000    0.0540880000000000 O
   0.3752910000000000    0.2334620000000000    0.1087760000000000 O
   0.1339920000000000    0.6399370000000000    0.4050590000000000 O
   0.6302510000000000    0.7956620000000000    0.5772460000000000 O
   0.1191300000000000    0.3551300000000000    0.1189920000000000 O
   0.6366230000000000    0.5066130000000000    0.2451370000000000 O
   0.8835040000000000    0.9344630000000000    0.5708460000000000 O
   0.3149000000000000    0.0036540000000000    0.6142930000000000 O
   0.9191750000000000    0.5883920000000000    0.2277500000000000 O
   0.3176770000000000    0.6413720000000001    0.2630770000000000 O
   0.3368590000000000    0.8395590000000001    0.3995240000000000 O
   0.3650390000000000    0.5060920000000000    0.0876720000000000 O
   0.6363110000000000    0.8220240000000000    0.2534780000000000 O
   0.6845610000000000    0.7000340000000000    0.0748850000000000 O
   0.0815340000000000    0.7471380000000000    0.1094700000000000 O
   0.3634660000000000    0.8369320000000000    0.1007020000000000 O
   0.8619930000000000    0.9944920000000000    0.2233360000000000 O
