Li6 Tl2 P2 C2 O14
1.0
   6.9552790000000000    0.0000000000000000    0.0000000000000000
   0.0000000000000000    5.2278690000000001    0.0000000000000000
   0.0000000000000000    0.2593440000000000    8.6965339999999998
Li Tl P C O
6 2 2 2 14
direct
   0.5080180000000000    0.9484460000000000    0.9990120000000000 Li
   0.8173049999999999    0.4971630000000000    0.1581140000000000 Li
   0.4825760000000000    0.5789710000000000    0.4902880000000000 Li
   0.9825760000000000    0.4210290000000000    0.5097120000000001 Li
   0.3173050000000000    0.5028370000000000    0.8418860000000000 Li
   0.0080180000000000    0.0515540000000000    0.0009880000000000 Li
   0.2471730000000000    0.0071100000000000    0.3076760000000000 Tl
   0.7471730000000000    0.9928900000000001    0.6923240000000001 Tl
   0.7602110000000000    0.9929740000000000    0.2987130000000000 P
   0.2602110000000000    0.0070260000000000    0.7012870000000000 P
   0.2686390000000000    0.5080420000000000    0.1393770000000000 C
   0.7686390000000000    0.4919580000000000    0.8606230000000000 C
   0.3052410000000000    0.6950210000000000    0.0444480000000000 O
   0.2020740000000000    0.2970760000000000    0.0839110000000000 O
   0.9141560000000000    0.8580100000000001    0.1968300000000000 O
   0.5740970000000000    0.0359580000000000    0.2026690000000000 O
   0.2934240000000000    0.5230920000000000    0.2891000000000000 O
   0.8381540000000000    0.2555590000000000    0.3487750000000000 O
   0.7143320000000000    0.8063050000000000    0.4384900000000000 O
   0.2143320000000000    0.1936950000000000    0.5615100000000000 O
   0.3381540000000000    0.7444410000000000    0.6512250000000001 O
   0.7934240000000000    0.4769080000000000    0.7109000000000000 O
   0.0740970000000000    0.9640420000000000    0.7973310000000000 O
   0.4141560000000000    0.1419900000000000    0.8031700000000001 O
   0.7020740000000000    0.7029240000000000    0.9160890000000000 O
   0.8052410000000000    0.3049790000000000    0.9555520000000000 O
