pymatgen with grid density = 1513 / number of atoms
0
Gamma
5 4 1
