Li2 S4 N6 O16
1.0
   8.3508130000000005    0.0000000000000000    0.0000000000000000
   0.0000000000000000    6.0480470000000004    0.0000000000000000
  -1.1220040000000000    0.0000000000000000    9.9572000000000003
Li S N O
2 4 6 16
direct
   0.9434190000000000    0.1024190000000000    0.1711300000000000 Li
   0.0565810000000000    0.6024190000000000    0.8288700000000000 Li
   0.5763720000000000    0.0880470000000000    0.3058560000000000 S
   0.4236280000000000    0.5880470000000000    0.6941440000000000 S
   0.0769720000000000    0.6100840000000000    0.1681250000000000 S
   0.9230280000000000    0.1100840000000000    0.8318750000000000 S
   0.6048490000000000    0.1118650000000000    0.7856360000000000 N
   0.3951510000000000    0.6118650000000000    0.2143640000000000 N
   0.1999020000000000    0.0668750000000000    0.5081530000000000 N
   0.8000980000000000    0.5668750000000000    0.4918470000000000 N
   0.7095660000000000    0.5530520000000000    0.0334760000000000 N
   0.2904340000000000    0.0530520000000000    0.9665240000000000 N
   0.6069440000000000    0.0744780000000000    0.4491960000000000 O
   0.3930560000000000    0.5744780000000000    0.5508040000000000 O
   0.5194220000000001    0.7025700000000000    0.2593670000000000 O
   0.4805780000000000    0.2025700000000000    0.7406330000000000 O
   0.4232600000000000    0.1579160000000000    0.2413310000000000 O
   0.5767400000000000    0.6579159999999999    0.7586690000000000 O
   0.7102050000000000    0.0763550000000000    0.2270050000000000 O
   0.2897950000000000    0.5763550000000000    0.7729950000000000 O
   0.9757530000000000    0.7825820000000000    0.2131430000000000 O
   0.0242470000000000    0.2825820000000000    0.7868570000000000 O
   0.2611120000000000    0.7247250000000000    0.2447670000000000 O
   0.7388880000000000    0.2247250000000000    0.7552330000000000 O
   0.0978230000000000    0.6081960000000000    0.0266230000000000 O
   0.9021770000000000    0.1081960000000000    0.9733770000000000 O
   0.0618480000000000    0.3944370000000000    0.2287410000000000 O
   0.9381520000000000    0.8944370000000000    0.7712590000000000 O
