Li8 Sm4 N20 O60
1.0
   9.0144280000000006    0.0000000000000000    0.0000000000000000
   0.0000000000000000   10.5478570000000005    0.0000000000000000
   0.0000000000000000    0.0000000000000000   11.7729110000000006
Li Sm N O
8 4 20 60
direct
   0.1170490000000000    0.2281550000000000    0.3210000000000000 Li
   0.8829510000000000    0.7718450000000000    0.6790000000000000 Li
   0.8829510000000000    0.7718450000000000    0.3210000000000000 Li
   0.3829510000000000    0.7281550000000000    0.1790000000000000 Li
   0.1170490000000000    0.2281550000000000    0.6790000000000000 Li
   0.6170490000000000    0.2718450000000000    0.8210000000000000 Li
   0.6170490000000000    0.2718450000000000    0.1790000000000000 Li
   0.3829510000000000    0.7281550000000000    0.8210000000000000 Li
   0.0000000000000000    0.0000000000000000    0.0000000000000000 Sm
   0.5000000000000000    0.5000000000000000    0.5000000000000000 Sm
   0.0000000000000000    0.5000000000000000    0.0000000000000000 Sm
   0.5000000000000000    0.0000000000000000    0.5000000000000000 Sm
   0.0000000000000000    0.0000000000000000    0.2588190000000000 N
   0.0000000000000000    0.0000000000000000    0.7411810000000000 N
   0.5000000000000000    0.5000000000000000    0.2411810000000000 N
   0.5000000000000000    0.5000000000000000    0.7588190000000000 N
   0.1732870000000000    0.2490880000000000    0.0000000000000000 N
   0.8267130000000000    0.7509120000000000    0.0000000000000000 N
   0.3267130000000000    0.7490880000000000    0.5000000000000000 N
   0.6732870000000000    0.2509120000000000    0.5000000000000000 N
   0.4005400000000000    0.1541230000000000    0.2922230000000000 N
   0.5994600000000000    0.8458770000000000    0.7077770000000000 N
   0.5994600000000000    0.8458770000000000    0.2922230000000000 N
   0.0994600000000000    0.6541230000000000    0.2077770000000000 N
   0.4005400000000000    0.1541230000000000    0.7077770000000000 N
   0.9005400000000000    0.3458770000000000    0.7922230000000000 N
   0.9005400000000000    0.3458770000000000    0.2077770000000000 N
   0.0994600000000000    0.6541230000000000    0.7922230000000000 N
   0.7074910000000000    0.1460630000000000    0.0000000000000000 N
   0.2925090000000000    0.8539369999999999    0.0000000000000000 N
   0.7925090000000000    0.6460630000000001    0.5000000000000000 N
   0.2074910000000000    0.3539370000000000    0.5000000000000000 N
   0.3127580000000000    0.1112830000000000    0.3695070000000000 O
   0.6872420000000000    0.8887170000000000    0.6304930000000000 O
   0.6872420000000000    0.8887170000000000    0.3695070000000000 O
   0.1872420000000000    0.6112830000000000    0.1304930000000000 O
   0.3127580000000000    0.1112830000000000    0.6304930000000000 O
   0.8127580000000000    0.3887170000000000    0.8695070000000000 O
   0.8127580000000000    0.3887170000000000    0.1304930000000000 O
   0.1872420000000000    0.6112830000000000    0.8695070000000000 O
   0.0287810000000000    0.2467290000000000    0.0000000000000000 O
   0.9712190000000001    0.7532710000000000    0.0000000000000000 O
   0.4712190000000000    0.7467290000000000    0.5000000000000000 O
   0.5287809999999999    0.2532710000000000    0.5000000000000000 O
   0.0375250000000000    0.3749330000000000    0.2007600000000000 O
   0.9624750000000000    0.6250670000000000    0.7992400000000000 O
   0.9624750000000000    0.6250670000000000    0.2007600000000000 O
   0.4624750000000000    0.8749330000000000    0.2992400000000000 O
   0.0375250000000000    0.3749330000000000    0.7992400000000000 O
   0.5375250000000000    0.1250670000000000    0.7007600000000000 O
   0.5375250000000000    0.1250670000000000    0.2992400000000000 O
   0.4624750000000000    0.8749330000000000    0.7007600000000000 O
   0.2396890000000000    0.1451340000000000    0.0000000000000000 O
   0.7603110000000000    0.8548660000000000    0.0000000000000000 O
   0.2603110000000000    0.6451340000000000    0.5000000000000000 O
   0.7396890000000000    0.3548660000000000    0.5000000000000000 O
   0.5972290000000000    0.2192210000000000    0.0000000000000000 O
   0.4027710000000000    0.7807790000000000    0.0000000000000000 O
   0.9027710000000000    0.7192210000000000    0.5000000000000000 O
   0.0972290000000000    0.2807790000000000    0.5000000000000000 O
   0.0000000000000000    0.0000000000000000    0.3633460000000000 O
   0.0000000000000000    0.0000000000000000    0.6366540000000001 O
   0.5000000000000000    0.5000000000000000    0.1366540000000000 O
   0.5000000000000000    0.5000000000000000    0.8633459999999999 O
   0.2358930000000000    0.3551700000000000    0.0000000000000000 O
   0.7641070000000000    0.6448300000000000    0.0000000000000000 O
   0.2641070000000000    0.8551700000000000    0.5000000000000000 O
   0.7358930000000000    0.1448300000000000    0.5000000000000000 O
   0.2659080000000000    0.3901570000000000    0.4071880000000000 O
   0.7340920000000000    0.6098430000000000    0.5928120000000000 O
   0.7340920000000000    0.6098430000000000    0.4071880000000000 O
   0.2340920000000000    0.8901570000000000    0.0928120000000000 O
   0.2659080000000000    0.3901570000000000    0.5928120000000000 O
   0.7659080000000000    0.1098430000000000    0.9071880000000000 O
   0.7659080000000000    0.1098430000000000    0.0928120000000000 O
   0.2340920000000000    0.8901570000000000    0.9071880000000000 O
   0.0581200000000000    0.0904390000000000    0.2004330000000000 O
   0.9418800000000001    0.9095610000000000    0.7995670000000000 O
   0.9418800000000001    0.9095610000000000    0.2004330000000000 O
   0.4418800000000000    0.5904390000000000    0.2995670000000000 O
   0.0581200000000000    0.0904390000000000    0.7995670000000000 O
   0.5581199999999999    0.4095610000000000    0.7004330000000000 O
   0.5581199999999999    0.4095610000000000    0.2995670000000000 O
   0.4418800000000000    0.5904390000000000    0.7004330000000000 O
   0.3533970000000000    0.2239770000000000    0.2153520000000000 O
   0.6466030000000000    0.7760230000000000    0.7846480000000000 O
   0.6466030000000000    0.7760230000000000    0.2153520000000000 O
   0.1466030000000000    0.7239770000000000    0.2846480000000000 O
   0.3533970000000000    0.2239770000000000    0.7846480000000000 O
   0.8533970000000000    0.2760230000000000    0.7153520000000000 O
   0.8533970000000000    0.2760230000000000    0.2846480000000000 O
   0.1466030000000000    0.7239770000000000    0.7153520000000000 O
