Li12 Tm4 N24 O72
1.0
   0.0000000000000000    7.5926894400000000    0.0000000000000000
   7.5100599900000002    0.0000000000000000   -2.2763187199999999
  -7.5136114999999997    0.0000000000000000  -22.9429953799999993
Li Tm N O
12 4 24 72
direct
   0.8158110000000000    0.7065178300000000    0.6340882200000000 Li
   0.1841890000000000    0.2934821700000000    0.3659117800000000 Li
   0.3158110000000000    0.7934821700000000    0.8659117800000000 Li
   0.6841890000000000    0.2065178300000000    0.1340882200000000 Li
   0.5577741800000000    0.0005269700000000    0.7453570600000000 Li
   0.4422258200000000    0.9994730300000000    0.2546429400000000 Li
   0.0577741800000000    0.4994730300000000    0.7546429400000000 Li
   0.9422258200000000    0.5005269700000000    0.2453570600000000 Li
   0.2899507500000000    0.7425653700000000    0.5259198600000000 Li
   0.7100492500000000    0.2574346300000000    0.4740801400000000 Li
   0.7899507500000000    0.7574346300000000    0.9740801400000000 Li
   0.2100492500000000    0.2425653700000000    0.0259198600000000 Li
   0.3059342700000000    0.2427359400000000    0.6096715700000001 Tm
   0.6940657300000000    0.7572640600000000    0.3903284300000000 Tm
   0.8059342700000000    0.2572640600000000    0.8903284299999999 Tm
   0.1940657300000000    0.7427359400000000    0.1096715700000000 Tm
   0.7982574600000000    0.7354072400000000    0.7352432000000000 N
   0.2017425400000000    0.2645927600000000    0.2647568000000000 N
   0.2982574600000000    0.7645927600000000    0.7647568000000000 N
   0.7017425400000000    0.2354072400000000    0.2352432000000000 N
   0.3019660600000000    0.2608613000000000    0.7295470400000000 N
   0.6980339400000000    0.7391387000000000    0.2704529600000000 N
   0.8019660600000000    0.2391387000000000    0.7704529600000000 N
   0.1980339400000000    0.7608613000000000    0.2295470400000000 N
   0.4936960900000000    0.1456006300000000    0.9457295600000000 N
   0.5063039100000000    0.8543993700000000    0.0542704400000000 N
   0.9936960900000000    0.3543993700000000    0.5542704400000000 N
   0.0063039100000000    0.6456006300000000    0.4457295600000000 N
   0.1277156500000000    0.4003093500000000    0.9358648300000000 N
   0.8722843500000000    0.5996906500000000    0.0641351700000000 N
   0.6277156500000000    0.0996906500000000    0.5641351700000000 N
   0.3722843500000000    0.9003093500000000    0.4358648300000000 N
   0.1148238200000000    0.9263075000000000    0.6065663600000000 N
   0.8851761800000000    0.0736925000000000    0.3934336400000000 N
   0.6148238200000000    0.5736925000000000    0.8934336400000000 N
   0.3851761800000000    0.4263075000000000    0.1065663600000000 N
   0.0067632700000000    0.9471408600000000    0.9025189200000000 N
   0.9932367300000000    0.0528591400000000    0.0974810800000000 N
   0.5067632700000000    0.5528591400000000    0.5974810800000000 N
   0.4932367300000000    0.4471408600000000    0.4025189200000000 N
   0.3970434400000000    0.1536241100000000    0.7013035399999999 O
   0.6029565600000000    0.8463758900000000    0.2986964600000000 O
   0.8970434400000000    0.3463758900000000    0.7986964600000001 O
   0.1029565600000000    0.6536241100000000    0.2013035400000000 O
   0.5248594300000000    0.0920998900000000    0.8965220000000000 O
   0.4751405700000000    0.9079001100000000    0.1034780000000000 O
   0.0248594300000000    0.4079001100000000    0.6034780000000000 O
   0.9751405700000000    0.5920998900000000    0.3965220000000000 O
   0.6082148300000000    0.2464379900000000    0.9677825500000000 O
   0.3917851700000000    0.7535620100000000    0.0322174500000000 O
   0.1082148300000000    0.2535620100000000    0.5322174500000000 O
   0.8917851700000000    0.7464379900000000    0.4677825500000000 O
   0.3002576400000000    0.2688821300000000    0.7801748500000000 O
   0.6997423600000000    0.7311178699999999    0.2198251500000000 O
   0.8002576400000000    0.2311178700000000    0.7198251500000000 O
   0.1997423600000000    0.7688821300000001    0.2801748500000000 O
   0.2635186400000000    0.4569455300000000    0.9575835900000000 O
   0.7364813600000000    0.5430544700000000    0.0424164100000000 O
   0.7635186400000000    0.0430544700000000    0.5424164100000000 O
   0.2364813600000000    0.9569455300000000    0.4575835900000000 O
   0.0485984900000000    0.0579389000000000    0.8672679000000000 O
   0.9514015100000000    0.9420611000000000    0.1327321000000000 O
   0.5485984900000000    0.4420611000000000    0.6327321000000000 O
   0.4514015100000000    0.5579389000000000    0.3672679000000000 O
   0.3583022000000000    0.1018343100000000    0.9710370699999999 O
   0.6416978000000000    0.8981656900000000    0.0289629300000000 O
   0.8583022000000000    0.3981656900000000    0.5289629300000001 O
   0.1416978000000000    0.6018343100000000    0.4710370700000000 O
   0.2963807400000000    0.7546240400000001    0.7134139400000000 O
   0.7036192600000000    0.2453759600000000    0.2865860600000000 O
   0.7963807400000000    0.7453759599999999    0.7865860600000000 O
   0.2036192600000000    0.2546240400000000    0.2134139400000000 O
   0.6383117699999999    0.4732848100000000    0.4292411600000000 O
   0.3616882300000000    0.5267151900000000    0.5707588400000000 O
   0.1383117700000000    0.0267151900000000    0.0707588400000000 O
   0.8616882300000001    0.9732848100000000    0.9292411600000000 O
   0.0333053600000000    0.7906371100000000    0.5991434900000000 O
   0.9666946400000000    0.2093628900000000    0.4008565100000000 O
   0.5333053600000000    0.7093628900000000    0.9008565100000000 O
   0.4666946400000000    0.2906371100000000    0.0991434900000000 O
   0.0208397400000000    0.3035724900000000    0.9643403500000000 O
   0.9791602600000000    0.6964275100000000    0.0356596500000000 O
   0.5208397400000000    0.1964275100000000    0.5356596500000000 O
   0.4791602600000000    0.8035724900000000    0.4643403500000000 O
   0.0821038100000000    0.4272567600000000    0.8866271600000000 O
   0.9178961900000000    0.5727432400000000    0.1133728400000000 O
   0.5821038100000000    0.0727432400000000    0.6133728400000000 O
   0.4178961900000000    0.9272567600000000    0.3866271600000000 O
   0.2080873500000000    0.3605099300000000    0.6993557900000000 O
   0.7919126500000000    0.6394900700000000    0.3006442100000000 O
   0.7080873500000000    0.1394900700000000    0.8006442100000000 O
   0.2919126500000000    0.8605099300000000    0.1993557900000000 O
   0.5981423500000000    0.6803422600000000    0.5880632600000000 O
   0.4018576500000000    0.3196577400000000    0.4119367400000000 O
   0.0981423500000000    0.8196577400000000    0.9119367400000000 O
   0.9018576500000000    0.1803422600000000    0.0880632600000000 O
   0.0638452300000000    0.0484033000000000    0.6376971299999999 O
   0.9361547700000000    0.9515967000000000    0.3623028700000000 O
   0.5638452300000000    0.4515967000000000    0.8623028700000001 O
   0.4361547700000000    0.5484033000000000    0.1376971300000000 O
   0.2620600900000000    0.9481612800000000    0.5807402800000000 O
   0.7379399100000000    0.0518387200000000    0.4192597200000000 O
   0.7620600900000000    0.5518387200000000    0.9192597200000000 O
   0.2379399100000000    0.4481612800000000    0.0807402800000000 O
   0.3914181500000000    0.8764323000000001    0.7911512100000000 O
   0.6085818500000000    0.1235677000000000    0.2088487900000000 O
   0.8914181500000000    0.6235676999999999    0.7088487900000000 O
   0.1085818500000000    0.3764323000000000    0.2911512100000000 O
   0.7083559600000000    0.8351442100000001    0.7048406200000000 O
   0.2916440400000000    0.1648557900000000    0.2951593800000000 O
   0.2083559600000000    0.6648557899999999    0.7951593800000000 O
   0.7916440400000000    0.3351442100000000    0.2048406200000000 O
