pymatgen with grid density = 1464 / number of atoms
0
Gamma
3 3 4
