pymatgen with grid density = 846 / number of atoms
0
Gamma
4 4 5
