Li1 Bi3 Cl2 O4
1.0
   2.7570260000000002   -6.1728660000000000    0.0000000000000000
   2.7570260000000002    6.1728660000000000    0.0000000000000000
   0.0000000000000000    0.0000000000000000    5.5142860000000002
Li Bi Cl O
1 3 2 4
direct
   0.6988070000000000    0.3011930000000000    0.5000000000000000 Li
   0.1529580000000000    0.8470420000000000    0.0000000000000000 Bi
   0.8397340000000000    0.1602660000000000    0.0000000000000000 Bi
   0.3431250000000000    0.6568750000000000    0.5000000000000000 Bi
   0.4932510000000000    0.5067490000000000    0.0000000000000000 Cl
   0.9834690000000000    0.0165310000000000    0.5000000000000000 Cl
   0.4937760000000000    0.9994490000000000    0.7523660000000000 O
   0.0005510000000000    0.5062240000000000    0.2476340000000000 O
   0.0005510000000000    0.5062240000000000    0.7523660000000000 O
   0.4937760000000000    0.9994490000000000    0.2476340000000000 O
