Sr3 Li3 Y6 B9 O27
1.0
  -0.0000070000000000   -0.0000080000000000   -6.4415860000000000
 -10.4328059999999994   -0.0000020000000000   -0.0000110000000000
  -5.2164010000000003    9.0350629999999992    0.0000050000000000
Sr Li Y B O
3 3 6 9 27
direct
   0.9999990000000000    0.9999990000000000    0.5033680000000000 Sr
   0.9999990000000000    0.4966330000000000    0.9999990000000000 Sr
   0.0000000000000000    0.5033680000000000    0.4966340000000000 Sr
   0.5000000000000000    0.0000000000000000    0.5028820000000001 Li
   0.5000000000000000    0.4971190000000000    0.0000010000000000 Li
   0.5000000000000000    0.5028810000000000    0.4971190000000000 Li
   0.3627110000000000    0.8168500000000000    0.8278190000000000 Y
   0.3627100000000000    0.3553260000000000    0.8168510000000000 Y
   0.3627130000000000    0.8278240000000000    0.3553290000000000 Y
   0.6372880000000000    0.1721860000000000    0.1831420000000000 Y
   0.6372910000000001    0.6446750000000000    0.1721870000000000 Y
   0.6372890000000000    0.1831390000000000    0.6446710000000000 Y
   0.8047470000000000    0.8086500000000000    0.8124850000000000 B
   0.8047460000000000    0.3788600000000000    0.8086490000000000 B
   0.8047450000000000    0.8124940000000000    0.3788640000000000 B
   0.1952560000000000    0.1875180000000000    0.1913460000000000 B
   0.1952560000000000    0.6211410000000001    0.1875210000000000 B
   0.1952550000000000    0.1913370000000000    0.6211360000000000 B
   0.3352630000000000    0.6666770000000000    0.6666609999999999 B
   0.6647360000000000    0.3333230000000000    0.3333380000000000 B
   0.4999990000000000    0.0000000000000000    0.0000080000000000 B
   0.3134620000000000    0.0711960000000000    0.6381340000000000 O
   0.3134650000000000    0.2906640000000000    0.0712020000000000 O
   0.3134640000000000    0.6381370000000000    0.2906640000000000 O
   0.3037210000000000    0.0771940000000000    0.3129130000000000 O
   0.3037220000000000    0.6098950000000000    0.0771950000000000 O
   0.3037220000000000    0.3129080000000000    0.6098920000000000 O
   0.6962790000000000    0.9228189999999999    0.3901040000000000 O
   0.6962739999999999    0.6870830000000000    0.9228130000000000 O
   0.6962739999999999    0.3901020000000000    0.6870790000000000 O
   0.6865400000000000    0.9287910000000000    0.7093380000000000 O
   0.6865400000000000    0.3618670000000000    0.9287890000000000 O
   0.6865390000000000    0.7093440000000000    0.3618700000000000 O
   0.0156250000000000    0.8051030000000000    0.8012260000000000 O
   0.0156250000000000    0.3936680000000000    0.8051030000000000 O
   0.0156260000000000    0.8012290000000000    0.3936720000000000 O
   0.9843750000000000    0.1987890000000000    0.1948830000000000 O
   0.9843740000000000    0.6063330000000000    0.1987890000000000 O
   0.9843750000000000    0.1948780000000000    0.6063300000000000 O
   0.3371190000000000    0.8191710000000000    0.5895770000000000 O
   0.3371110000000000    0.5912450000000000    0.8191840000000000 O
   0.3371110000000000    0.5895690000000000    0.5912480000000000 O
   0.6628800000000000    0.1808300000000000    0.4087420000000000 O
   0.6628880000000000    0.4104360000000000    0.1808160000000000 O
   0.6628880000000000    0.4087500000000000    0.4104340000000000 O
   0.4999970000000000    0.8681990000000001    0.0000010000000000 O
   0.5000019999999999    0.1318000000000000    0.8681980000000000 O
   0.5000000000000000    0.0000020000000000    0.1317910000000000 O
