pymatgen with grid density = 1167 / number of atoms
0
Gamma
4 1 1
