Li8 Sc8 H16 Se16 O56
1.0
   0.0000000000000000    5.6082587600000000    0.0000000000000000
  -0.0068375900000000    0.0000000000000000   16.0436797400000017
  15.7256162400000008    0.0000000000000000   -7.8383491000000003
Li Sc H Se O
8 8 16 16 56
direct
   0.3073580200000000    0.8258599700000000    0.7828070000000000 Li
   0.3073580200000000    0.6741400300000000    0.2171930000000000 Li
   0.6926419800000000    0.1741400300000000    0.2171930000000000 Li
   0.6926419800000000    0.3258599700000000    0.7828070000000000 Li
   0.1848902900000000    0.4498817600000000    0.8121345800000001 Li
   0.1848902900000000    0.0501182400000000    0.1878654200000000 Li
   0.8151097100000000    0.5501182400000000    0.1878654200000000 Li
   0.8151097100000000    0.9498817600000000    0.8121345800000001 Li
   0.4340250000000000    0.7500000000000000    0.5000000000000000 Sc
   0.5659750000000000    0.2500000000000000    0.5000000000000000 Sc
   0.9988062300000000    0.6277921500000000    0.7562692100000000 Sc
   0.9988062300000000    0.8722078500000000    0.2437307900000000 Sc
   0.0011937700000000    0.3722078500000000    0.2437307900000000 Sc
   0.0011937700000000    0.1277921500000000    0.7562692100000000 Sc
   0.5000000000000000    0.5000000000000000   -0.0000000000000000 Sc
   0.5000000000000000    0.0000000000000000   -0.0000000000000000 Sc
   0.9278738300000000    0.3440014500000000    0.6760749300000000 H
   0.9278738300000000    0.1559985500000000    0.3239250700000000 H
   0.0721261700000000    0.6559985500000000    0.3239250700000000 H
   0.0721261700000000    0.8440014500000000    0.6760749300000000 H
   0.0874283400000000    0.2867477300000000    0.7100954100000000 H
   0.0874283400000000    0.2132522700000000    0.2899045900000000 H
   0.9125716600000000    0.7132522700000000    0.2899045900000000 H
   0.9125716600000000    0.7867477300000000    0.7100954100000000 H
   0.5799829399999999    0.4584297800000000    0.7541521100000000 H
   0.5799829399999999    0.0415702200000000    0.2458478900000000 H
   0.4200170600000000    0.5415702200000000    0.2458478900000000 H
   0.4200170600000000    0.9584297800000000    0.7541521100000000 H
   0.4303297600000000    0.3760530200000000    0.6855194600000000 H
   0.4303297600000000    0.1239469800000000    0.3144805400000000 H
   0.5696702400000000    0.6239469800000000    0.3144805400000000 H
   0.5696702400000000    0.8760530200000000    0.6855194600000000 H
   0.5004742000000000    0.6318420700000000    0.6414018000000000 Se
   0.5004742000000000    0.8681579300000000    0.3585982000000000 Se
   0.4995258000000000    0.3681579300000000    0.3585982000000000 Se
   0.4995258000000000    0.1318420700000000    0.6414018000000000 Se
   0.0661197300000000    0.4012958200000000    0.5602913700000000 Se
   0.0661197300000000    0.0987041800000000    0.4397086300000000 Se
   0.9338802700000000    0.5987041800000000    0.4397086300000000 Se
   0.9338802700000000    0.9012958200000000    0.5602913700000000 Se
   0.0020349700000000    0.8661464800000001    0.9416129900000000 Se
   0.0020349700000000    0.6338535199999999    0.0583870100000000 Se
   0.9979650300000000    0.1338535200000000    0.0583870100000000 Se
   0.9979650300000000    0.3661464800000000    0.9416129900000000 Se
   0.4943268000000000    0.6351202300000000    0.8741985300000000 Se
   0.4943268000000000    0.8648797700000000    0.1258014700000000 Se
   0.5056732000000000    0.3648797700000000    0.1258014700000000 Se
   0.5056732000000000    0.1351202300000000    0.8741985300000000 Se
   0.4383374800000000    0.6923742300000000    0.5850046100000000 O
   0.4383374800000000    0.8076257700000000    0.4149953900000000 O
   0.5616625200000001    0.3076257700000000    0.4149953900000000 O
   0.5616625200000001    0.1923742300000000    0.5850046100000000 O
   0.3105956600000000    0.3477742600000000    0.5788082800000000 O
   0.3105956600000000    0.1522257400000000    0.4211917200000000 O
   0.6894043399999999    0.6522257400000000    0.4211917200000000 O
   0.6894043399999999    0.8477742600000000    0.5788082800000000 O
   0.8364082600000000    0.3420261400000000    0.5798497900000000 O
   0.8364082600000000    0.1579738600000000    0.4201502100000000 O
   0.1635917400000000    0.6579738600000000    0.4201502100000000 O
   0.1635917400000000    0.8420261400000000    0.5798497900000000 O
   0.0606713600000000    0.5037512100000000    0.6518812200000000 O
   0.0606713600000000    0.9962487900000000    0.3481187800000000 O
   0.9393286400000000    0.4962487900000000    0.3481187800000000 O
   0.9393286400000000    0.0037512100000000    0.6518812200000000 O
   0.9513209800000000    0.7586296800000000    0.8598893500000000 O
   0.9513209800000000    0.7413703200000000    0.1401106500000000 O
   0.0486790200000000    0.2413703200000000    0.1401106500000000 O
   0.0486790200000000    0.2586296800000000    0.8598893500000000 O
   0.6947515399999999    0.5728532300000000    0.7926531900000000 O
   0.6947515399999999    0.9271467700000000    0.2073468100000000 O
   0.3052484600000000    0.4271467700000000    0.2073468100000000 O
   0.3052484600000000    0.0728532300000000    0.7926531900000000 O
   0.7748024300000000    0.6767360700000000    0.6854913100000000 O
   0.7748024300000000    0.8232639300000000    0.3145086900000000 O
   0.2251975700000000    0.3232639300000000    0.3145086900000000 O
   0.2251975700000000    0.1767360700000000    0.6854913100000000 O
   0.3120338000000000    0.6871898900000000    0.7287175000000000 O
   0.3120338000000000    0.8128101100000000    0.2712825000000000 O
   0.6879662000000000    0.3128101100000000    0.2712825000000000 O
   0.6879662000000000    0.1871898900000000    0.7287175000000000 O
   0.2239757600000000    0.5830976900000000    0.8307636400000000 O
   0.2239757600000000    0.9169023100000000    0.1692363600000000 O
   0.7760242400000000    0.4169023100000000    0.1692363600000000 O
   0.7760242400000000    0.0830976900000000    0.8307636400000000 O
   0.5452395900000000    0.5865769500000000    0.9418873200000000 O
   0.5452395900000000    0.9134230500000000    0.0581126800000000 O
   0.4547604100000000    0.4134230500000000    0.0581126800000000 O
   0.4547604100000000    0.0865769500000000    0.9418873200000000 O
   0.7987999300000000    0.9357305800000000    0.9200786399999999 O
   0.7987999300000000    0.5642694200000000    0.0799213600000000 O
   0.2012000700000000    0.0642694200000000    0.0799213600000000 O
   0.2012000700000000    0.4357305800000000    0.9200786399999999 O
   0.2643076100000000    0.8971325300000000    0.9083296600000000 O
   0.2643076100000000    0.6028674700000000    0.0916703400000000 O
   0.7356923900000000    0.1028674700000000    0.0916703400000000 O
   0.7356923900000000    0.3971325300000000    0.9083296600000000 O
   0.9898938100000000    0.3443181000000000    0.7293921400000000 O
   0.9898938100000000    0.1556819000000000    0.2706078600000000 O
   0.0101061900000000    0.6556819000000000    0.2706078600000000 O
   0.0101061900000000    0.8443181000000000    0.7293921400000000 O
   0.4890906100000000    0.4012078100000000    0.7447716200000000 O
   0.4890906100000000    0.0987921900000000    0.2552283800000000 O
   0.5109093900000000    0.5987921899999999    0.2552283800000000 O
   0.5109093900000000    0.9012078100000001    0.7447716200000000 O
