ALGO = Fast
EDIFF = 0.00055
ENCUT = 520
IBRION = 2
ISIF = 3
ISMEAR = -5
ISPIN = 2
LASPH = True
LMAXMIX = 4
LORBIT = 11
LREAL = Auto
LWAVE = False
MAGMOM = 2*-0.003 1*0.007 2*1.48 4*0.044 2*0.045
NELM = 100
NSW = 99
PREC = Accurate
SIGMA = 0.05
