Li2 Mg12 Sc2 Si16 O48
1.0
  14.0347849999999994    0.0000000000000000    0.0000000000000000
   0.0000000000000000    7.8286030000000002    0.0000000000000000
   0.0000000000000000    0.5163460000000000    7.9267029999999998
Li Mg Sc Si O
2 12 2 16 48
direct
   0.4101300000000000    0.4296250000000000    0.0999510000000000 Li
   0.5898700000000000    0.9296250000000000    0.0999510000000000 Li
   0.7453050000000000    0.2913300000000000    0.5277090000000000 Mg
   0.1716910000000000    0.0557790000000000    0.7573700000000000 Mg
   0.2546950000000000    0.7913300000000000    0.5277090000000000 Mg
   0.8283090000000000    0.5557790000000000    0.7573700000000000 Mg
   0.3623440000000000    0.1923390000000000    0.7227550000000000 Mg
   0.9739840000000000    0.1827250000000000    0.6918380000000000 Mg
   0.6376560000000000    0.6923390000000000    0.7227550000000000 Mg
   0.0260160000000000    0.6827250000000000    0.6918380000000000 Mg
   0.8501110000000000    0.0942240000000000    0.2911050000000000 Mg
   0.0509200000000000    0.3357520000000000    0.0756320000000000 Mg
   0.9490800000000000    0.8357520000000001    0.0756320000000000 Mg
   0.1498890000000000    0.5942240000000000    0.2911050000000000 Mg
   0.7458710000000000    0.6880680000000000    0.3755890000000000 Sc
   0.2541290000000000    0.1880680000000000    0.3755890000000000 Sc
   0.8370240000000000    0.4676540000000000    0.0950730000000000 Si
   0.2385340000000000    0.6446090000000000    0.9305320000000000 Si
   0.7614660000000000    0.1446090000000000    0.9305320000000000 Si
   0.1629760000000000    0.9676540000000000    0.0950730000000000 Si
   0.5228850000000000    0.4414290000000000    0.5666630000000000 Si
   0.9399080000000000    0.4529510000000000    0.4126480000000000 Si
   0.4771150000000000    0.9414290000000000    0.5666630000000000 Si
   0.0600920000000000    0.9529510000000000    0.4126480000000000 Si
   0.8224640000000000    0.9081129999999999    0.6884410000000000 Si
   0.5979480000000000    0.5850340000000001    0.1399300000000000 Si
   0.4020520000000000    0.0850340000000000    0.1399300000000000 Si
   0.1775360000000000    0.4081130000000000    0.6884410000000000 Si
   0.5986650000000000    0.1323480000000000    0.3763610000000000 Si
   0.4013350000000000    0.6323480000000000    0.3763610000000000 Si
   0.5537890000000000    0.2619060000000000    0.9386080000000000 Si
   0.4462110000000000    0.7619060000000000    0.9386080000000000 Si
   0.5667130000000000    0.3909220000000000    0.0835380000000000 O
   0.0659890000000000    0.4021230000000000    0.7551900000000000 O
   0.9340110000000000    0.9021230000000000    0.7551900000000000 O
   0.4332870000000000    0.8909220000000000    0.0835380000000000 O
   0.0950070000000000    0.7982050000000001    0.1433640000000000 O
   0.5590240000000000    0.6895630000000000    0.9478940000000000 O
   0.4409760000000000    0.1895630000000000    0.9478940000000000 O
   0.9049930000000000    0.2982050000000000    0.1433640000000000 O
   0.4770560000000000    0.5867410000000000    0.2311330000000000 O
   0.9022070000000000    0.6048460000000000    0.9714950000000000 O
   0.5229440000000000    0.0867410000000000    0.2311330000000000 O
   0.0977930000000000    0.1048460000000000    0.9714950000000000 O
   0.2891850000000000    0.6527120000000000    0.3280940000000000 O
   0.9298040000000000    0.5645880000000000    0.5805390000000000 O
   0.0701960000000000    0.0645880000000000    0.5805390000000000 O
   0.7108150000000000    0.1527120000000000    0.3280940000000000 O
   0.6287270000000000    0.7520430000000000    0.2443010000000000 O
   0.2172420000000000    0.6084430000000000    0.7257260000000000 O
   0.7827580000000000    0.1084430000000000    0.7257260000000000 O
   0.3712730000000000    0.2520430000000000    0.2443010000000000 O
   0.1959770000000000    0.3897340000000000    0.4885010000000000 O
   0.7301150000000000    0.5291870000000000    0.5810790000000000 O
   0.2698850000000000    0.0291870000000000    0.5810790000000000 O
   0.8040230000000000    0.8897340000000000    0.4885010000000000 O
   0.9610800000000000    0.9420600000000000    0.3108970000000000 O
   0.4504660000000000    0.1409920000000000    0.5566290000000000 O
   0.5495340000000000    0.6409920000000000    0.5566290000000000 O
   0.0389200000000000    0.4420600000000000    0.3108970000000000 O
   0.4088490000000000    0.8301790000000000    0.4461090000000000 O
   0.6410780000000000    0.1199330000000000    0.9461020000000000 O
   0.3589220000000000    0.6199330000000000    0.9461020000000000 O
   0.5911510000000000    0.3301790000000000    0.4461090000000000 O
   0.5519640000000000    0.3694730000000000    0.7582719999999999 O
   0.1080200000000000    0.7671559999999999    0.4877840000000000 O
   0.4480360000000000    0.8694730000000001    0.7582719999999999 O
   0.8919800000000000    0.2671560000000000    0.4877840000000000 O
   0.7562360000000000    0.7747150000000000    0.7982359999999999 O
   0.1353710000000000    0.0647970000000000    0.2850680000000000 O
   0.2437640000000000    0.2747150000000000    0.7982359999999999 O
   0.8646290000000000    0.5647970000000000    0.2850680000000000 O
   0.5934739999999999    0.9665470000000000    0.5269330000000000 O
   0.4065260000000000    0.4665470000000000    0.5269330000000000 O
   0.8182390000000000    0.0076610000000000    0.0530830000000000 O
   0.1817610000000000    0.5076610000000000    0.0530830000000000 O
   0.7850220000000000    0.3525220000000000    0.9173230000000000 O
   0.2787450000000000    0.0309710000000000    0.1425060000000000 O
   0.2149780000000000    0.8525220000000000    0.9173230000000000 O
   0.7212550000000000    0.5309710000000000    0.1425060000000000 O
