Li4 Ho2 P2 C2 O14
1.0
   6.7747270000000004    0.0000000000000000    0.0000000000000000
   0.0000000000000000    4.9221740000000000    0.0000000000000000
   0.0000000000000000    0.4350600000000000    8.9788599999999992
Li Ho P C O
4 2 2 2 14
direct
   0.9836279999999999    0.7922610000000000    0.7935160000000000 Li
   0.5163720000000001    0.7922610000000000    0.7935160000000000 Li
   0.4836280000000000    0.2077390000000000    0.2064840000000000 Li
   0.0163720000000000    0.2077390000000000    0.2064840000000000 Li
   0.2500000000000000    0.2535030000000000    0.6400390000000000 Ho
   0.7500000000000000    0.7464970000000000    0.3599610000000000 Ho
   0.7500000000000000    0.2773540000000000    0.5901650000000001 P
   0.2500000000000000    0.7226460000000000    0.4098350000000000 P
   0.2500000000000000    0.2606830000000000    0.9433009999999999 C
   0.7500000000000000    0.7393170000000000    0.0566990000000000 C
   0.7500000000000000    0.7207780000000000    0.9165280000000000 O
   0.2500000000000000    0.0268950000000000    0.8788160000000000 O
   0.2500000000000000    0.4786260000000000    0.8511830000000000 O
   0.9351610000000000    0.1462970000000000    0.6631540000000000 O
   0.5648390000000000    0.1462970000000000    0.6631540000000000 O
   0.2500000000000000    0.7644270000000000    0.5827430000000000 O
   0.7500000000000000    0.5912280000000000    0.6029630000000000 O
   0.2500000000000000    0.4087720000000000    0.3970370000000000 O
   0.7500000000000000    0.2355730000000000    0.4172570000000000 O
   0.4351610000000000    0.8537030000000000    0.3368460000000000 O
   0.0648390000000000    0.8537030000000000    0.3368460000000000 O
   0.7500000000000000    0.5213740000000000    0.1488170000000000 O
   0.7500000000000000    0.9731050000000000    0.1211840000000000 O
   0.2500000000000000    0.2792220000000000    0.0834720000000000 O
