Li4 Al4 Ge8 O24
1.0
   8.4904510000000002    0.0000000000000000    0.0000000000000000
   0.0000000000000000    5.4588479999999997    0.0000000000000000
   0.0000000000000000    1.8543110000000000    9.4154400000000003
Li Al Ge O
4 4 8 24
direct
   0.2170980000000000    0.2951620000000000    0.0079600000000000 Li
   0.2829020000000000    0.2951620000000000    0.5079600000000000 Li
   0.7829020000000000    0.7048380000000000    0.9920400000000000 Li
   0.7170980000000000    0.7048380000000000    0.4920400000000000 Li
   0.4134220000000000    0.7503430000000000    0.9954490000000000 Al
   0.0865780000000000    0.7503430000000000    0.4954490000000000 Al
   0.5865780000000000    0.2496570000000000    0.0045510000000000 Al
   0.9134220000000000    0.2496570000000000    0.5045510000000000 Al
   0.9155590000000000    0.4311200000000000    0.7905720000000001 Ge
   0.5844410000000000    0.4311200000000000    0.2905720000000000 Ge
   0.0844410000000000    0.5688800000000001    0.2094280000000000 Ge
   0.4155590000000000    0.5688800000000001    0.7094279999999999 Ge
   0.1129260000000000    0.9459680000000000    0.7793360000000000 Ge
   0.3870740000000000    0.9459680000000000    0.2793360000000000 Ge
   0.8870740000000000    0.0540320000000000    0.2206640000000000 Ge
   0.6129260000000000    0.0540320000000000    0.7206640000000000 Ge
   0.9273090000000000    0.5432300000000000    0.6028040000000000 O
   0.5726910000000000    0.5432300000000000    0.1028040000000000 O
   0.0726910000000000    0.4567700000000000    0.3971960000000000 O
   0.4273090000000000    0.4567700000000000    0.8971960000000000 O
   0.9892690000000000    0.6985000000000000    0.8592830000000000 O
   0.5107310000000000    0.6985000000000000    0.3592830000000000 O
   0.0107310000000000    0.3015000000000000    0.1407170000000000 O
   0.4892690000000000    0.3015000000000000    0.6407170000000000 O
   0.7428890000000000    0.4109080000000000    0.8892430000000000 O
   0.7571110000000000    0.4109080000000000    0.3892430000000000 O
   0.2571110000000000    0.5890919999999999    0.1107570000000000 O
   0.2428890000000000    0.5890919999999999    0.6107570000000000 O
   0.0675930000000000    0.2093250000000000    0.8568710000000000 O
   0.4324070000000000    0.2093250000000000    0.3568710000000000 O
   0.9324070000000000    0.7906750000000000    0.1431290000000000 O
   0.5675930000000000    0.7906750000000000    0.6431290000000000 O
   0.0981590000000000    0.0355700000000000    0.5901390000000000 O
   0.4018410000000000    0.0355700000000000    0.0901390000000000 O
   0.9018410000000000    0.9644300000000000    0.4098610000000000 O
   0.5981590000000000    0.9644300000000000    0.9098610000000000 O
   0.3104020000000000    0.8822850000000000    0.8256280000000000 O
   0.1895980000000000    0.8822850000000000    0.3256280000000000 O
   0.6895980000000000    0.1177150000000000    0.1743720000000000 O
   0.8104020000000000    0.1177150000000000    0.6743720000000000 O
