Li2 Al2 Si4 O12
1.0
   4.2363650000000002    4.8105110000000000    0.0000000000000000
  -4.2363650000000002    4.8105110000000000    0.0000000000000000
   0.0000000000000000    1.8575580000000000    4.9370989999999999
Li Al Si O
2 2 4 12
direct
   0.2705000000000000    0.7295000000000000    0.7500000000000000 Li
   0.7295000000000000    0.2705000000000000    0.2500000000000000 Li
   0.9054700000000000    0.0945300000000000    0.7500000000000000 Al
   0.0945300000000000    0.9054700000000000    0.2500000000000000 Al
   0.8000440000000000    0.6132770000000000    0.7579770000000000 Si
   0.3867230000000000    0.1999560000000000    0.7420230000000000 Si
   0.1999560000000000    0.3867230000000000    0.2420230000000000 Si
   0.6132770000000000    0.8000440000000000    0.2579770000000000 Si
   0.9738720000000000    0.8079270000000000    0.6409589999999999 O
   0.1920730000000000    0.0261280000000000    0.8590410000000001 O
   0.0261280000000000    0.1920730000000000    0.3590410000000000 O
   0.8079270000000000    0.9738720000000000    0.1409590000000000 O
   0.9003910000000001    0.3679010000000000    0.7998499999999999 O
   0.6320990000000000    0.0996090000000000    0.7001500000000001 O
   0.0996090000000000    0.6320990000000000    0.2001500000000000 O
   0.3679010000000000    0.9003910000000001    0.2998500000000000 O
   0.6274640000000000    0.6625740000000000    0.5648310000000000 O
   0.3374260000000000    0.3725360000000000    0.9351690000000000 O
   0.3725360000000000    0.3374260000000000    0.4351690000000000 O
   0.6625740000000000    0.6274640000000000    0.0648310000000000 O
