pymatgen with grid density = 1118 / number of atoms
0
Gamma
2 2 1
