pymatgen with grid density = 2023 / number of atoms
0
Gamma
3 2 2
