Li4 H8 Br4 O4
1.0
   4.0641590000000001   -4.1005539999999998    0.0000000000000000
   4.0641590000000001    4.1005539999999998    0.0000000000000000
   0.0000000000000000    0.0000000000000000    8.0464620000000000
Li H Br O
4 8 4 4
direct
   0.0000000000000000    0.0000000000000000    0.0000000000000000 Li
   0.0000000000000000    0.0000000000000000    0.5000000000000000 Li
   0.6828300000000000    0.3171700000000000    0.2500000000000000 Li
   0.3171700000000000    0.6828300000000000    0.7500000000000000 Li
   0.6005850000000000    0.2098350000000000    0.9412660000000000 H
   0.2098350000000000    0.6005850000000000    0.0587340000000000 H
   0.2098350000000000    0.6005850000000000    0.4412660000000000 H
   0.6005850000000000    0.2098350000000000    0.5587340000000000 H
   0.7901650000000000    0.3994150000000000    0.5587340000000000 H
   0.3994150000000000    0.7901650000000000    0.0587340000000000 H
   0.7901650000000000    0.3994150000000000    0.9412660000000000 H
   0.3994150000000000    0.7901650000000000    0.4412660000000000 H
   0.2196930000000000    0.2772510000000000    0.2500000000000000 Br
   0.2772510000000000    0.2196930000000000    0.7500000000000000 Br
   0.7227490000000000    0.7803070000000000    0.2500000000000000 Br
   0.7803070000000000    0.7227490000000000    0.7500000000000000 Br
   0.7446500000000000    0.2553500000000000    0.0003390000000000 O
   0.7446500000000000    0.2553500000000000    0.4996610000000000 O
   0.2553500000000000    0.7446500000000000    0.5003390000000000 O
   0.2553500000000000    0.7446500000000000    0.9996610000000000 O
