Li4 C4 S4 O12 F12
1.0
   5.1191990000000001    0.0000000000000000    0.0000000000000000
   0.0000000000000000    9.6756379999999993    0.0000000000000000
   0.0000000000000000    0.1703580000000000   10.3071090000000005
Li C S O F
4 4 4 12 12
direct
   0.8887280000000000    0.9099410000000000    0.1004260000000000 Li
   0.1112720000000000    0.0900590000000000    0.8995740000000000 Li
   0.6112720000000000    0.4099410000000000    0.1004260000000000 Li
   0.3887280000000000    0.5900590000000000    0.8995740000000000 Li
   0.2623080000000000    0.6020250000000000    0.3398060000000000 C
   0.7376920000000000    0.3979750000000000    0.6601939999999999 C
   0.2376920000000000    0.1020250000000000    0.3398060000000000 C
   0.7623080000000000    0.8979750000000000    0.6601939999999999 C
   0.8929600000000000    0.4083400000000000    0.8242100000000000 S
   0.1070400000000000    0.5916600000000000    0.1757900000000000 S
   0.3929600000000000    0.0916600000000000    0.1757900000000000 S
   0.6070400000000000    0.9083400000000000    0.8242100000000000 S
   0.1739570000000000    0.0528770000000000    0.0906630000000000 O
   0.0075770000000000    0.7292100000000000    0.1477680000000000 O
   0.8260430000000000    0.9471230000000000    0.9093370000000000 O
   0.5893540000000000    0.9840370000000001    0.1909530000000000 O
   0.3260430000000000    0.5528770000000000    0.0906630000000000 O
   0.6739570000000000    0.4471230000000000    0.9093370000000000 O
   0.0893540000000000    0.5159629999999999    0.8090470000000000 O
   0.4924230000000000    0.2292100000000000    0.1477680000000000 O
   0.9106460000000000    0.4840370000000000    0.1909530000000000 O
   0.9924230000000001    0.2707900000000000    0.8522320000000000 O
   0.4106460000000000    0.0159630000000000    0.8090470000000000 O
   0.5075769999999999    0.7707900000000000    0.8522320000000000 O
   0.5445190000000000    0.3032310000000000    0.6622780000000000 F
   0.5832250000000000    0.8624500000000000    0.5708370000000000 F
   0.4554810000000000    0.6967690000000000    0.3377220000000000 F
   0.0832250000000000    0.6375500000000000    0.4291630000000000 F
   0.9167750000000000    0.3624500000000000    0.5708370000000000 F
   0.0445190000000000    0.1967690000000000    0.3377220000000000 F
   0.8644110000000000    0.0229750000000000    0.6275950000000000 F
   0.4167750000000000    0.1375500000000000    0.4291630000000000 F
   0.3644110000000000    0.4770250000000000    0.3724050000000000 F
   0.1355890000000000    0.9770250000000000    0.3724050000000000 F
   0.9554810000000000    0.8032310000000000    0.6622780000000000 F
   0.6355890000000000    0.5229750000000000    0.6275950000000000 F
