pymatgen with grid density = 1374 / number of atoms
0
Gamma
3 2 1
