ALGO = Fast
EDIFF = 0.0007
ENCUT = 520
IBRION = 2
ISIF = 3
ISMEAR = -5
ISPIN = 2
LASPH = True
LMAXMIX = 4
LORBIT = 11
LREAL = Auto
LWAVE = False
MAGMOM = 1*0.001 1*0.046 1*0.001 1*0.025 1*0.0 1*0.149 1*0.003 1*0.214 3*0.0 3*0.084
NELM = 100
NSW = 99
PREC = Accurate
SIGMA = 0.05
