Li8 Sb4 P12 O40
1.0
   7.8676830000000004    0.0000000000000000    0.0000000000000000
   0.0000000000000000   10.0567200000000003    0.0000000000000000
   0.0000000000000000    2.8326959999999999   12.6056100000000004
Li Sb P O
8 4 12 40
direct
   0.4775100000000000    0.5702670000000000    0.1438450000000000 Li
   0.0224900000000000    0.0702670000000000    0.1438450000000000 Li
   0.9078580000000001    0.1090840000000000    0.4287000000000000 Li
   0.5921419999999999    0.6090840000000000    0.4287000000000000 Li
   0.4078580000000000    0.3909160000000000    0.5713000000000000 Li
   0.0921420000000000    0.8909160000000000    0.5713000000000000 Li
   0.9775100000000000    0.9297330000000000    0.8561550000000000 Li
   0.5224900000000000    0.4297330000000000    0.8561550000000000 Li
   0.0891610000000000    0.3804530000000000    0.1797440000000000 Sb
   0.4108390000000000    0.8804530000000000    0.1797440000000000 Sb
   0.5891610000000000    0.1195470000000000    0.8202560000000000 Sb
   0.9108390000000000    0.6195470000000000    0.8202560000000000 Sb
   0.4290830000000000    0.2297930000000000    0.0789040000000000 P
   0.0709170000000000    0.7297930000000000    0.0789040000000000 P
   0.5909500000000000    0.1196630000000000    0.2828290000000000 P
   0.9090500000000000    0.6196630000000000    0.2828290000000000 P
   0.2252580000000000    0.0548530000000000    0.3403180000000000 P
   0.2747420000000000    0.5548530000000000    0.3403180000000000 P
   0.7252580000000000    0.4451470000000000    0.6596820000000000 P
   0.7747420000000000    0.9451470000000000    0.6596820000000000 P
   0.0909500000000000    0.3803370000000000    0.7171710000000000 P
   0.4090500000000000    0.8803370000000000    0.7171710000000000 P
   0.9290830000000000    0.2702070000000000    0.9210960000000000 P
   0.5709170000000000    0.7702070000000000    0.9210960000000000 P
   0.3357450000000000    0.0909760000000000    0.0991730000000000 O
   0.9959860000000000    0.2246940000000000    0.0327330000000000 O
   0.3282460000000000    0.3465930000000000    0.1115980000000000 O
   0.1642550000000000    0.5909759999999999    0.0991730000000000 O
   0.5040140000000000    0.7246939999999999    0.0327330000000000 O
   0.1717540000000000    0.8465930000000000    0.1115980000000000 O
   0.5895540000000000    0.2090110000000000    0.1610950000000000 O
   0.9104460000000000    0.7090109999999999    0.1610950000000000 O
   0.0955220000000000    0.1442820000000000    0.2661230000000000 O
   0.8905200000000000    0.4712800000000000    0.2756820000000000 O
   0.2422970000000000    0.4196960000000000    0.3022280000000000 O
   0.4044780000000000    0.6442820000000000    0.2661230000000000 O
   0.6094800000000000    0.9712800000000000    0.2756820000000000 O
   0.4025000000000000    0.1399960000000000    0.3286470000000000 O
   0.2577030000000000    0.9196960000000000    0.3022280000000000 O
   0.7192499999999999    0.1809260000000000    0.3424670000000000 O
   0.0975000000000000    0.6399960000000000    0.3286470000000000 O
   0.7807500000000001    0.6809260000000000    0.3424670000000000 O
   0.1634760000000000    0.0307460000000000    0.4531650000000000 O
   0.3365240000000000    0.5307460000000001    0.4531650000000000 O
   0.6634760000000000    0.4692540000000000    0.5468350000000000 O
   0.8365240000000000    0.9692539999999999    0.5468350000000000 O
   0.2192500000000000    0.3190740000000000    0.6575330000000000 O
   0.9025000000000000    0.3600040000000000    0.6713530000000000 O
   0.2807500000000000    0.8190740000000000    0.6575330000000000 O
   0.7422970000000000    0.0803040000000000    0.6977719999999999 O
   0.5975000000000000    0.8600040000000000    0.6713530000000000 O
   0.3905200000000000    0.0287200000000000    0.7243180000000000 O
   0.5955220000000000    0.3557180000000000    0.7338770000000000 O
   0.7577030000000000    0.5803040000000000    0.6977719999999999 O
   0.1094800000000000    0.5287200000000000    0.7243180000000000 O
   0.9044780000000000    0.8557180000000000    0.7338770000000000 O
   0.0895540000000000    0.2909890000000000    0.8389050000000000 O
   0.4104460000000000    0.7909890000000001    0.8389050000000000 O
   0.8282460000000000    0.1534070000000000    0.8884020000000000 O
   0.4959860000000000    0.2753060000000000    0.9672670000000000 O
   0.8357450000000000    0.4090240000000000    0.9008270000000000 O
   0.6717540000000000    0.6534070000000000    0.8884020000000000 O
   0.0040140000000000    0.7753060000000001    0.9672670000000000 O
   0.6642550000000000    0.9090240000000001    0.9008270000000000 O
