Li3 Sn1 P6 O18
1.0
   7.2176650000000002    0.0000000000000000    0.0000000000000000
  -0.9088640000000000    7.4488440000000002    0.0000000000000000
  -2.2260100000000000   -3.3722129999999999    6.3988659999999999
Li Sn P O
3 1 6 18
direct
   0.4743930000000000    0.4880120000000000    0.9578040000000000 Li
   0.1615960000000000    0.6931550000000000    0.8715790000000000 Li
   0.8625130000000000    0.6353000000000000    0.4636760000000000 Li
   0.9063470000000000    0.2075020000000000    0.0725140000000000 Sn
   0.2272090000000000    0.0149370000000000    0.6872050000000000 P
   0.7641760000000000    0.3463350000000000    0.6721210000000000 P
   0.5113700000000000    0.7842550000000000    0.7423940000000000 P
   0.2326660000000000    0.6763410000000000    0.3222600000000000 P
   0.7525370000000000    0.9825760000000000    0.3243810000000000 P
   0.4891750000000000    0.2265190000000000    0.2590470000000000 P
   0.2687780000000000    0.1942320000000000    0.1553220000000000 O
   0.5374330000000000    0.0080060000000000    0.2074710000000000 O
   0.2570380000000000    0.6406520000000000    0.1236700000000000 O
   0.7460770000000000    0.3754570000000000    0.8761310000000000 O
   0.0713340000000000    0.8819650000000000    0.7080160000000000 O
   0.2528990000000000    0.2350210000000000    0.7589880000000000 O
   0.5446700000000000    0.3203000000000000    0.5094200000000000 O
   0.4423960000000000    0.6857350000000000    0.4888710000000000 O
   0.4467130000000000    0.9916280000000000    0.7988430000000000 O
   0.4024620000000000    0.6466010000000000    0.7989500000000000 O
   0.7319760000000000    0.7669180000000000    0.2743960000000000 O
   0.6422630000000000    0.3438760000000000    0.2152060000000000 O
   0.9141500000000000    0.4995610000000000    0.6703290000000000 O
   0.0594080000000000    0.5240640000000000    0.3109560000000000 O
   0.9172979999999999    0.0939030000000000    0.2869250000000000 O
   0.2084780000000000    0.8992370000000000    0.4406140000000000 O
   0.7878790000000000    0.1175020000000000    0.5674300000000000 O
   0.7395230000000000    0.8578220000000000    0.8442200000000000 O
