Li16 B32 H32 O72
1.0
  -8.5653240000000004    0.0000000000000000    0.0000000000000000
  -0.9704650000000000  -12.1895439999999997    0.0000000000000000
  -0.6826480000000000   -3.9180690000000000   13.2230650000000001
Li B H O
16 32 32 72
direct
   0.2495330000000000    0.9742350000000000    0.0087660000000000 Li
   0.7267270000000000    0.2477240000000000    0.5748920000000000 Li
   0.7143090000000000    0.2309160000000000    0.2747560000000000 Li
   0.7504670000000000    0.0257650000000000    0.9912339999999999 Li
   0.2732730000000000    0.7522759999999999    0.4251080000000000 Li
   0.8036590000000000    0.6311170000000000    0.2768180000000000 Li
   0.2552710000000000    0.5181519999999999    0.4919180000000000 Li
   0.7750380000000000    0.2529780000000000    0.9234750000000000 Li
   0.6823700000000000    0.8807560000000000    0.2316390000000000 Li
   0.9628190000000000    0.4740400000000000    0.8426820000000000 Li
   0.3176300000000000    0.1192440000000000    0.7683610000000000 Li
   0.0371810000000000    0.5259600000000000    0.1573180000000000 Li
   0.1963410000000000    0.3688830000000000    0.7231820000000000 Li
   0.2856910000000000    0.7690840000000000    0.7252440000000000 Li
   0.7447290000000000    0.4818480000000000    0.5080820000000000 Li
   0.2249620000000000    0.7470220000000000    0.0765250000000000 Li
   0.0984140000000000    0.9584950000000000    0.8305660000000000 B
   0.4512780000000000    0.3186710000000000    0.0947330000000000 B
   0.6364290000000000    0.1456910000000000    0.1351100000000000 B
   0.9704920000000000    0.8596230000000000    0.1235710000000000 B
   0.1403090000000000    0.6407890000000001    0.6382070000000000 B
   0.0347610000000000    0.3273050000000000    0.5007790000000000 B
   0.5191600000000000    0.6405530000000000    0.3751880000000000 B
   0.5951720000000000    0.9721550000000000    0.8405190000000000 B
   0.5008440000000000    0.2628960000000000    0.8102160000000000 B
   0.6589490000000000    0.4238620000000000    0.7230720000000000 B
   0.8461030000000000    0.0765940000000000    0.7802550000000000 B
   0.4596770000000000    0.1760000000000000    0.9974690000000001 B
   0.9015860000000000    0.0415050000000000    0.1694340000000000 B
   0.8596900000000000    0.3592110000000000    0.3617930000000000 B
   0.1538970000000000    0.9234059999999999    0.2197450000000000 B
   0.5487220000000000    0.6813290000000000    0.9052670000000000 B
   0.3635710000000000    0.8543090000000000    0.8648900000000000 B
   0.0013480000000000    0.2375020000000000    0.6903629999999999 B
   0.3410510000000000    0.5761380000000000    0.2769280000000000 B
   0.0454060000000000    0.1861160000000000    0.4003780000000000 B
   0.5403230000000000    0.8240000000000000    0.0025310000000000 B
   0.9100470000000001    0.5239670000000000    0.6590660000000000 B
   0.4048280000000000    0.0278450000000000    0.1594810000000000 B
   0.4095360000000000    0.5412200000000000    0.6691870000000000 B
   0.4808400000000000    0.3594470000000000    0.6248120000000000 B
   0.9545940000000001    0.8138840000000001    0.5996220000000000 B
   0.4991560000000000    0.7371040000000000    0.1897840000000000 B
   0.5904640000000000    0.4587800000000000    0.3308130000000000 B
   0.0899530000000000    0.4760330000000000    0.3409340000000000 B
   0.9652390000000000    0.6726950000000000    0.4992210000000000 B
   0.0295080000000000    0.1403770000000000    0.8764290000000000 B
   0.9986520000000000    0.7624980000000000    0.3096370000000000 B
   0.2596810000000000    0.5437400000000000    0.0454160000000000 H
   0.3920750000000000    0.2692730000000000    0.5405680000000000 H
   0.2033840000000000    0.1316430000000000    0.5790360000000000 H
   0.7284530000000000    0.6211220000000000    0.0827510000000000 H
   0.1256110000000000    0.3415280000000000    0.0999780000000000 H
   0.2432420000000000    0.4984050000000000    0.8340780000000000 H
   0.7517450000000000    0.0344010000000000    0.5659290000000000 H
   0.5639720000000000    0.1175760000000000    0.4416170000000000 H
   0.7403189999999999    0.4562600000000000    0.9545840000000000 H
   0.0706610000000000    0.0700840000000000    0.3217320000000000 H
   0.1218500000000000    0.6195830000000000    0.9757000000000000 H
   0.8743890000000000    0.6584719999999999    0.9000220000000000 H
   0.0031840000000000    0.3049840000000000    0.1895840000000000 H
   0.2715470000000000    0.3788780000000000    0.9172490000000000 H
   0.6079250000000000    0.7307270000000000    0.4594320000000000 H
   0.1383870000000000    0.1748020000000000    0.9928360000000001 H
   0.9293390000000000    0.9299160000000000    0.6782680000000000 H
   0.6349160000000000    0.0743910000000000    0.6384410000000000 H
   0.4894120000000000    0.1078370000000000    0.3393560000000000 H
   0.6858230000000000    0.9796280000000001    0.3706840000000000 H
   0.4206830000000000    0.4315300000000000    0.1763550000000000 H
   0.2482550000000000    0.9655990000000000    0.4340710000000000 H
   0.8781500000000000    0.3804170000000000    0.0243000000000000 H
   0.5793170000000000    0.5684700000000000    0.8236450000000000 H
   0.4360280000000000    0.8824240000000000    0.5583830000000000 H
   0.5105880000000000    0.8921630000000000    0.6606440000000000 H
   0.3141770000000000    0.0203720000000000    0.6293160000000000 H
   0.7966160000000000    0.8683570000000000    0.4209640000000000 H
   0.7567580000000000    0.5015950000000000    0.1659220000000000 H
   0.3650840000000000    0.9256090000000000    0.3615590000000000 H
   0.8616130000000000    0.8251980000000000    0.0071640000000000 H
   0.9968160000000000    0.6950160000000000    0.8104160000000000 H
   0.4552820000000000    0.9522699999999999    0.8049640000000000 O
   0.8692280000000000    0.5777770000000000    0.5613540000000000 O
   0.5585490000000000    0.8180580000000000    0.1079660000000000 O
   0.9312180000000000    0.2534680000000000    0.3369030000000000 O
   0.7963410000000000    0.1319480000000000    0.1729040000000000 O
   0.9479500000000000    0.4597650000000000    0.3041440000000000 O
   0.1307720000000000    0.4222230000000000    0.4386460000000000 O
   0.5843250000000000    0.1197680000000000    0.3701940000000000 O
   0.0764610000000000    0.2293290000000000    0.7793639999999999 O
   0.4537550000000000    0.4738540000000000    0.2796980000000000 O
   0.8828290000000000    0.1703560000000000    0.6863600000000000 O
   0.8683910000000000    0.3483040000000000    0.4700570000000000 O
   0.3748540000000000    0.8453360000000000    0.9729179999999999 O
   0.4320550000000000    0.7456270000000000    0.8450140000000000 O
   0.3800120000000000    0.6705440000000000    0.1841950000000000 O
   0.6074420000000000    0.7134160000000001    0.9836180000000000 O
   0.8900660000000000    0.9131040000000000    0.6171660000000000 O
   0.3838550000000000    0.4177060000000000    0.1133140000000000 O
   0.5679450000000000    0.2543730000000000    0.1549860000000000 O
   0.1758500000000000    0.6058560000000000    0.0400500000000000 O
   0.2017530000000000    0.4228930000000000    0.8620000000000000 O
   0.6406510000000000    0.3874330000000000    0.6325330000000000 O
   0.2728870000000000    0.0954520000000000    0.6365690000000001 O
   0.1416000000000000    0.0373160000000000    0.8790540000000000 O
   0.8584000000000001    0.9626840000000000    0.1209460000000000 O
   0.5239400000000000    0.6803530000000000    0.4634090000000000 O
   0.3147990000000000    0.9515220000000000    0.2272090000000000 O
   0.9443960000000000    0.6798900000000000    0.3932410000000000 O
   0.3610520000000000    0.0824390000000000    0.0607800000000000 O
   0.7271130000000000    0.9045480000000000    0.3634310000000000 O
   0.0423070000000000    0.0265210000000000    0.2168000000000000 O
   0.4414510000000000    0.1819420000000000    0.8920340000000000 O
   0.8187880000000000    0.4534670000000000    0.7312210000000000 O
   0.4269130000000000    0.2735500000000000    0.7203130000000000 O
   0.6251460000000000    0.1546640000000000    0.0270820000000000 O
   0.5730870000000000    0.7264500000000000    0.2796870000000000 O
   0.7005360000000000    0.3726180000000000    0.3225160000000000 O
   0.6199880000000000    0.3294560000000000    0.8158050000000000 O
   0.0556040000000000    0.3201100000000000    0.6067590000000000 O
   0.3925580000000000    0.2865840000000000    0.0163820000000000 O
   0.0983050000000000    0.2185700000000000    0.4797870000000000 O
   0.8673400000000000    0.1144960000000000    0.8700210000000000 O
   0.6852009999999999    0.0484780000000000    0.7727910000000000 O
   0.2036590000000000    0.8680520000000000    0.8270960000000001 O
   0.9016950000000000    0.7814300000000000    0.5202130000000000 O
   0.4760600000000000    0.3196470000000000    0.5365910000000000 O
   0.0687820000000000    0.7465320000000000    0.6630970000000000 O
   0.6629920000000000    0.0918120000000000    0.5652340000000000 O
   0.8241500000000000    0.3941440000000000    0.9599500000000000 O
   0.7982470000000000    0.5771070000000000    0.1380000000000000 O
   0.1099340000000000    0.0868960000000000    0.3828340000000000 O
   0.0247660000000000    0.3651080000000000    0.1265600000000000 O
   0.4156750000000000    0.8802320000000000    0.6298060000000000 O
   0.1171710000000000    0.8296440000000000    0.3136400000000000 O
   0.2994640000000000    0.6273820000000000    0.6774840000000000 O
   0.3370080000000000    0.9081880000000000    0.4347660000000000 O
   0.3680370000000000    0.4639100000000000    0.6195800000000000 O
   0.6319630000000001    0.5360900000000000    0.3804200000000000 O
   0.9576930000000000    0.9734790000000000    0.7832000000000000 O
   0.5447180000000000    0.0477300000000000    0.1950360000000000 O
   0.3593490000000000    0.6125670000000000    0.3674670000000000 O
   0.6161450000000001    0.5822940000000000    0.8866860000000000 O
   0.0348850000000000    0.1791270000000000    0.9654470000000001 O
   0.1326600000000000    0.8855040000000000    0.1299790000000000 O
   0.1316090000000000    0.6516960000000001    0.5299430000000001 O
   0.1812120000000000    0.5465330000000000    0.2687790000000000 O
   0.6389480000000000    0.9175610000000000    0.9392200000000001 O
   0.5462450000000000    0.5261460000000000    0.7203020000000000 O
   0.9651149999999999    0.8208730000000000    0.0345530000000000 O
   0.9235390000000000    0.7706710000000000    0.2206360000000000 O
   0.9752340000000000    0.6348920000000000    0.8734400000000000 O
   0.0520500000000000    0.5402350000000000    0.6958560000000000 O
