Sr1 Li1 Pr1 Te1 O6
1.0
   2.8085610000000001    4.9040260000000000    0.0000000000000000
  -2.8085610000000001    4.9040260000000000    0.0000000000000000
   0.0000000000000000    3.2891309999999998    4.6648870000000002
Sr Li Pr Te O
1 1 1 1 6
direct
   0.7506380000000000    0.7506380000000000    0.2447790000000000 Sr
   0.9992020000000000    0.9992020000000000    0.5046650000000000 Li
   0.2513170000000000    0.2513170000000000    0.7637030000000000 Pr
   0.5010130000000000    0.5010130000000000    0.9982040000000000 Te
   0.7366430000000000    0.7366430000000000    0.6914480000000000 O
   0.6876230000000000    0.2186060000000000    0.8032130000000000 O
   0.7945850000000000    0.2944170000000000    0.1820790000000000 O
   0.2944170000000000    0.7945850000000000    0.1820790000000000 O
   0.2186060000000000    0.6876230000000000    0.8032130000000000 O
   0.2659570000000000    0.2659570000000000    0.3266140000000000 O
