Na12 Li8 Al4 Si8 O32
1.0
   7.1269150000000003   -7.4398530000000003    0.0000000000000000
   7.1269150000000003    7.4398530000000003    0.0000000000000000
   0.0000000000000000    0.0000000000000000    7.1537699999999997
Na Li Al Si O
12 8 4 8 32
direct
   0.8773480000000000    0.8773480000000000    0.0000000000000000 Na
   0.3773480000000000    0.3773480000000000    0.5000000000000000 Na
   0.1226520000000000    0.1226520000000000    0.0000000000000000 Na
   0.6226520000000000    0.6226520000000000    0.5000000000000000 Na
   0.0976500000000000    0.4023500000000000    0.7500000000000000 Na
   0.4023500000000000    0.0976500000000000    0.2500000000000000 Na
   0.9023500000000000    0.5976500000000000    0.2500000000000000 Na
   0.5976500000000000    0.9023500000000000    0.7500000000000000 Na
   0.8658150000000000    0.1341850000000000    0.2478910000000000 Na
   0.1341850000000000    0.8658150000000000    0.7521090000000000 Na
   0.6341850000000000    0.3658150000000000    0.7478910000000000 Na
   0.3658150000000000    0.6341850000000000    0.2521090000000000 Na
   0.1630010000000000    0.6482790000000000    0.5141200000000000 Li
   0.6482790000000000    0.1630010000000000    0.4858800000000000 Li
   0.1482790000000000    0.6630010000000000    0.0141200000000000 Li
   0.6630010000000000    0.1482790000000000    0.9858800000000000 Li
   0.8369990000000000    0.3517210000000000    0.4858800000000000 Li
   0.3517210000000000    0.8369990000000000    0.5141200000000000 Li
   0.8517210000000000    0.3369990000000000    0.9858800000000000 Li
   0.3369990000000000    0.8517210000000000    0.0141200000000000 Li
   0.8380910000000000    0.8380910000000000    0.5000000000000000 Al
   0.3380910000000000    0.3380910000000000    0.0000000000000000 Al
   0.1619090000000000    0.1619090000000000    0.5000000000000000 Al
   0.6619090000000000    0.6619090000000000    0.0000000000000000 Al
   0.0980830000000000    0.9019170000000000    0.2846920000000000 Si
   0.9019170000000000    0.0980830000000000    0.7153080000000001 Si
   0.4019170000000000    0.5980830000000000    0.7846919999999999 Si
   0.5980830000000000    0.4019170000000000    0.2153080000000000 Si
   0.9045010000000000    0.5954990000000000    0.7500000000000000 Si
   0.5954990000000000    0.9045010000000000    0.2500000000000000 Si
   0.0954990000000000    0.4045010000000000    0.2500000000000000 Si
   0.4045010000000000    0.0954990000000000    0.7500000000000000 Si
   0.1712160000000000    0.8287840000000000    0.4501160000000000 O
   0.8287840000000000    0.1712160000000000    0.5498840000000000 O
   0.3287840000000000    0.6712160000000000    0.9501160000000000 O
   0.6712160000000000    0.3287840000000000    0.0498840000000000 O
   0.1339780000000000    0.8660220000000000    0.0692150000000000 O
   0.8660220000000000    0.1339780000000000    0.9307850000000000 O
   0.3660220000000000    0.6339780000000000    0.5692150000000000 O
   0.6339780000000000    0.3660220000000000    0.4307850000000000 O
   0.9357500000000000    0.8770160000000000    0.3047620000000000 O
   0.8770160000000000    0.9357500000000000    0.6952380000000000 O
   0.3770160000000000    0.4357500000000000    0.8047620000000000 O
   0.4357500000000000    0.3770160000000000    0.1952380000000000 O
   0.0642500000000000    0.1229840000000000    0.6952380000000000 O
   0.1229840000000000    0.0642500000000000    0.3047620000000000 O
   0.6229840000000000    0.5642500000000000    0.1952380000000000 O
   0.5642500000000000    0.6229840000000000    0.8047620000000000 O
   0.8286829999999999    0.6529810000000000    0.9389670000000000 O
   0.6529810000000000    0.8286829999999999    0.0610330000000000 O
   0.1529810000000000    0.3286830000000000    0.4389670000000000 O
   0.3286830000000000    0.1529810000000000    0.5610330000000000 O
   0.1713170000000000    0.3470190000000000    0.0610330000000000 O
   0.3470190000000000    0.1713170000000000    0.9389670000000000 O
   0.8470190000000000    0.6713170000000001    0.5610330000000000 O
   0.6713170000000001    0.8470190000000000    0.4389670000000000 O
   0.0605870000000000    0.6287690000000000    0.7671760000000000 O
   0.6287690000000000    0.0605870000000000    0.2328240000000000 O
   0.1287690000000000    0.5605869999999999    0.2671760000000000 O
   0.5605869999999999    0.1287690000000000    0.7328240000000000 O
   0.9394130000000001    0.3712310000000000    0.2328240000000000 O
   0.3712310000000000    0.9394130000000001    0.7671760000000000 O
   0.8712310000000000    0.4394130000000000    0.7328240000000000 O
   0.4394130000000000    0.8712310000000000    0.2671760000000000 O
