ALGO = Fast
EDIFF = 0.0068000000000000005
ENCUT = 520
IBRION = 2
ISIF = 3
ISMEAR = -5
ISPIN = 2
LASPH = True
LMAXMIX = 4
LORBIT = 11
LREAL = Auto
LWAVE = False
MAGMOM = 1*0.0 2*0.005 2*0.0 1*0.005 1*0.0 1*0.005 4*0.0 4*-0.005 8*0.0 4*-0.005 8*0.0 4*-0.002 8*0.0 4*-0.002 4*0.0 8*0.146 2*0.001 2*0.004 2*0.05 2*0.017 2*0.001 2*0.284 2*0.05 2*0.284 1*0.003 1*0.004 2*0.003 2*0.284 2*0.05 2*0.284 2*0.001 2*0.017 2*0.05 2*0.004 4*0.001 2*0.004 2*0.05 2*0.017 2*0.001 2*0.284 2*0.05 2*0.284 2*0.003 1*0.004 1*0.003 2*0.284 2*0.05 2*0.284 2*0.001 2*0.017 2*0.05 2*0.004 2*0.001
NELM = 100
NSW = 99
PREC = Accurate
SIGMA = 0.05
