Li8 B24 H24 Se8 O72
1.0
   8.9632480000000001    0.0000000000000000    0.0000000000000000
   0.0000000000000000   11.4845120000000005    0.0000000000000000
   0.0000000000000000    0.0000000000000000   14.6553920000000009
Li B H Se O
8 24 24 8 72
direct
   0.1746200000000000    0.0000000000000000    0.2500000000000000 Li
   0.5000470000000000    0.0000000000000000    0.2500000000000000 Li
   0.4999530000000000    0.0000000000000000    0.7500000000000000 Li
   0.8253800000000000    0.0000000000000000    0.7500000000000000 Li
   0.6746200000000000    0.5000000000000000    0.2500000000000000 Li
   0.9999530000000000    0.5000000000000000    0.7500000000000000 Li
   0.3253800000000000    0.5000000000000000    0.7500000000000000 Li
   0.0000470000000000    0.5000000000000000    0.2500000000000000 Li
   0.0439130000000000    0.1467280000000000    0.0832520000000000 B
   0.9560870000000000    0.1467280000000000    0.5832520000000000 B
   0.5347040000000000    0.1434230000000000    0.0748050000000000 B
   0.4652960000000000    0.1434230000000000    0.5748050000000000 B
   0.0824990000000000    0.2393980000000000    0.4509690000000000 B
   0.9175010000000000    0.2393980000000000    0.9509690000000000 B
   0.4175010000000000    0.2606020000000000    0.9509690000000000 B
   0.5824990000000000    0.2606020000000000    0.4509690000000000 B
   0.0347040000000000    0.3565770000000000    0.0748050000000000 B
   0.9652960000000000    0.3565770000000000    0.5748050000000000 B
   0.5439130000000000    0.3532720000000000    0.0832520000000000 B
   0.4560870000000000    0.3532720000000000    0.5832520000000000 B
   0.4560870000000000    0.6467280000000000    0.9167480000000000 B
   0.5439130000000000    0.6467280000000000    0.4167480000000000 B
   0.0347040000000000    0.6434230000000000    0.4251950000000000 B
   0.9652960000000000    0.6434230000000000    0.9251950000000000 B
   0.4175010000000000    0.7393980000000000    0.5490310000000000 B
   0.5824990000000000    0.7393980000000000    0.0490310000000000 B
   0.0824990000000000    0.7606020000000000    0.0490310000000000 B
   0.9175010000000000    0.7606020000000000    0.5490310000000000 B
   0.4652960000000000    0.8565770000000000    0.9251950000000000 B
   0.5347040000000000    0.8565770000000000    0.4251950000000000 B
   0.0439130000000000    0.8532720000000000    0.4167480000000000 B
   0.9560870000000000    0.8532720000000000    0.9167480000000000 B
   0.0677800000000000    0.9796210000000000    0.0864830000000000 H
   0.9322200000000000    0.9796210000000000    0.5864830000000000 H
   0.5559700000000000    0.0296010000000000    0.4229640000000000 H
   0.4440300000000000    0.0296010000000000    0.9229640000000000 H
   0.2615150000000000    0.1886190000000000    0.6856250000000000 H
   0.7384849999999999    0.1886190000000000    0.1856250000000000 H
   0.2384850000000000    0.3113810000000000    0.1856250000000000 H
   0.7615150000000001    0.3113810000000000    0.6856250000000000 H
   0.0559700000000000    0.4703990000000000    0.4229640000000000 H
   0.9440300000000000    0.4703990000000000    0.9229640000000000 H
   0.5677800000000000    0.5203790000000000    0.0864830000000000 H
   0.4322200000000000    0.5203790000000000    0.5864830000000000 H
   0.4322200000000000    0.4796210000000000    0.9135170000000000 H
   0.5677800000000000    0.4796210000000000    0.4135170000000000 H
   0.0559700000000000    0.5296010000000000    0.0770360000000000 H
   0.9440300000000000    0.5296010000000000    0.5770360000000000 H
   0.7615150000000001    0.6886190000000000    0.8143750000000000 H
   0.2384850000000000    0.6886190000000000    0.3143750000000000 H
   0.2615150000000000    0.8113810000000000    0.8143750000000000 H
   0.7384849999999999    0.8113810000000000    0.3143750000000000 H
   0.4440300000000000    0.9703990000000000    0.5770360000000000 H
   0.5559700000000000    0.9703990000000000    0.0770360000000000 H
   0.0677800000000000    0.0203790000000000    0.4135170000000000 H
   0.9322200000000000    0.0203790000000000    0.9135170000000000 H
   0.3301570000000000    0.2454230000000000    0.3253940000000000 Se
   0.6698430000000000    0.2454230000000000    0.8253940000000000 Se
   0.1698430000000000    0.2545770000000000    0.8253940000000000 Se
   0.8301570000000000    0.2545770000000000    0.3253940000000000 Se
   0.1698430000000000    0.7454229999999999    0.6746060000000000 Se
   0.8301570000000000    0.7454229999999999    0.1746060000000000 Se
   0.3301570000000000    0.7545770000000001    0.1746060000000000 Se
   0.6698430000000000    0.7545770000000001    0.6746060000000000 Se
   0.5683390000000000    0.0400110000000000    0.1174560000000000 O
   0.4316610000000000    0.0400110000000000    0.6174560000000000 O
   0.0913950000000000    0.0469130000000000    0.1261740000000000 O
   0.9086050000000000    0.0469130000000000    0.6261740000000000 O
   0.3343680000000000    0.1104680000000000    0.2836010000000000 O
   0.6656320000000000    0.1104680000000000    0.7836010000000000 O
   0.9677249999999999    0.1387400000000000    0.0026840000000000 O
   0.0322750000000000    0.1387400000000000    0.5026840000000000 O
   0.5411210000000000    0.1485140000000000    0.4934950000000000 O
   0.4588790000000000    0.1485140000000000    0.9934950000000000 O
   0.8275010000000000    0.1580220000000000    0.2189510000000000 O
   0.1724990000000000    0.1580220000000000    0.7189510000000000 O
   0.0203700000000000    0.2317440000000000    0.3536270000000000 O
   0.9796300000000000    0.2317440000000000    0.8536270000000000 O
   0.2462260000000000    0.2294610000000000    0.4432310000000000 O
   0.7537740000000001    0.2294610000000000    0.9432310000000000 O
   0.4208050000000000    0.2442910000000000    0.6203640000000000 O
   0.5791950000000000    0.2442910000000000    0.1203640000000000 O
   0.0791950000000000    0.2557090000000000    0.1203640000000000 O
   0.9208050000000000    0.2557090000000000    0.6203640000000000 O
   0.7462259999999999    0.2705390000000000    0.4432310000000000 O
   0.2537740000000000    0.2705390000000000    0.9432310000000000 O
   0.4796300000000000    0.2682560000000000    0.8536270000000000 O
   0.5203700000000000    0.2682560000000000    0.3536270000000000 O
   0.3275010000000000    0.3419780000000000    0.2189510000000000 O
   0.6724990000000000    0.3419780000000000    0.7189510000000000 O
   0.0411210000000000    0.3514860000000000    0.4934950000000000 O
   0.9588790000000000    0.3514860000000000    0.9934950000000000 O
   0.5322750000000001    0.3612600000000000    0.5026840000000000 O
   0.4677250000000000    0.3612600000000000    0.0026840000000000 O
   0.8343680000000000    0.3895320000000000    0.2836010000000000 O
   0.1656320000000000    0.3895320000000000    0.7836010000000000 O
   0.5913950000000000    0.4530870000000000    0.1261740000000000 O
   0.4086050000000000    0.4530870000000000    0.6261740000000000 O
   0.0683390000000000    0.4599890000000000    0.1174560000000000 O
   0.9316610000000000    0.4599890000000000    0.6174560000000000 O
   0.0683390000000000    0.5400110000000000    0.3825440000000000 O
   0.9316610000000000    0.5400110000000000    0.8825440000000000 O
   0.5913950000000000    0.5469130000000000    0.3738260000000000 O
   0.4086050000000000    0.5469130000000000    0.8738260000000000 O
   0.8343680000000000    0.6104680000000000    0.2163990000000000 O
   0.1656320000000000    0.6104680000000000    0.7163990000000000 O
   0.4677250000000000    0.6387400000000000    0.4973160000000000 O
   0.5322750000000001    0.6387400000000000    0.9973160000000000 O
   0.0411210000000000    0.6485140000000000    0.0065050000000000 O
   0.9588790000000000    0.6485140000000000    0.5065050000000000 O
   0.3275010000000000    0.6580220000000000    0.2810490000000000 O
   0.6724990000000000    0.6580220000000000    0.7810490000000000 O
   0.4796300000000000    0.7317440000000000    0.6463730000000000 O
   0.5203700000000000    0.7317440000000000    0.1463730000000000 O
   0.2537740000000000    0.7294610000000000    0.5567690000000000 O
   0.7462259999999999    0.7294610000000000    0.0567690000000000 O
   0.9208050000000000    0.7442910000000000    0.8796360000000000 O
   0.0791950000000000    0.7442910000000000    0.3796360000000000 O
   0.4208050000000000    0.7557090000000000    0.8796360000000000 O
   0.5791950000000000    0.7557090000000000    0.3796360000000000 O
   0.2462260000000000    0.7705390000000000    0.0567690000000000 O
   0.7537740000000001    0.7705390000000000    0.5567690000000000 O
   0.0203700000000000    0.7682560000000000    0.1463730000000000 O
   0.9796300000000000    0.7682560000000000    0.6463730000000000 O
   0.1724990000000000    0.8419780000000000    0.7810490000000000 O
   0.8275010000000000    0.8419780000000000    0.2810490000000000 O
   0.4588790000000000    0.8514860000000000    0.5065050000000000 O
   0.5411210000000000    0.8514860000000000    0.0065050000000000 O
   0.0322750000000000    0.8612600000000000    0.9973160000000000 O
   0.9677249999999999    0.8612600000000000    0.4973160000000000 O
   0.3343680000000000    0.8895320000000000    0.2163990000000000 O
   0.6656320000000000    0.8895320000000000    0.7163990000000000 O
   0.0913950000000000    0.9530870000000000    0.3738260000000000 O
   0.9086050000000000    0.9530870000000000    0.8738260000000000 O
   0.4316610000000000    0.9599890000000000    0.8825440000000000 O
   0.5683390000000000    0.9599890000000000    0.3825440000000000 O
