Li1 Y9 Si6 O26
1.0
   4.7274010000000004   -8.1880980000000001    0.0000000000000000
   4.7274010000000004    8.1880980000000001    0.0000000000000000
   0.0000000000000000    0.0000000000000000    6.7819060000000002
Li Y Si O
1 9 6 26
direct
   0.3333330000000000    0.6666670000000000    0.0239700000000000 Li
   0.9038180000000000    0.3349390000000000    0.2493690000000000 Y
   0.4311210000000000    0.0961820000000000    0.2493690000000000 Y
   0.6650610000000000    0.5688790000000000    0.2493690000000000 Y
   0.4338900000000000    0.3358970000000000    0.7519550000000000 Y
   0.9020070000000000    0.5661100000000000    0.7519550000000000 Y
   0.6641030000000000    0.0979930000000000    0.7519550000000000 Y
   0.0000000000000000    0.0000000000000000    0.5027000000000000 Y
   0.0000000000000000    0.0000000000000000    0.9989470000000000 Y
   0.3333330000000000    0.6666670000000000    0.4992490000000000 Y
   0.6925170000000000    0.9608480000000000    0.2513540000000000 Si
   0.2683310000000000    0.3074830000000000    0.2513540000000000 Si
   0.0391520000000000    0.7316690000000000    0.2513540000000000 Si
   0.6369860000000001    0.7066510000000000    0.7510740000000000 Si
   0.0696640000000000    0.3630140000000000    0.7510740000000000 Si
   0.2933490000000000    0.9303360000000001    0.7510740000000000 Si
   0.7642949999999999    0.0861340000000000    0.4423670000000000 O
   0.3218390000000000    0.2357050000000000    0.4423670000000000 O
   0.9138660000000000    0.6781610000000000    0.4423670000000000 O
   0.5893550000000000    0.5783870000000000    0.9352170000000000 O
   0.9890330000000001    0.4106450000000000    0.9352170000000000 O
   0.4216130000000000    0.0109670000000000    0.9352170000000000 O
   0.5774220000000000    0.5837770000000000    0.5577920000000000 O
   0.0063550000000000    0.4225780000000000    0.5577920000000000 O
   0.4162230000000000    0.9936450000000000    0.5577920000000000 O
   0.7602530000000000    0.0824450000000000    0.0580730000000000 O
   0.3221930000000000    0.2397470000000000    0.0580730000000000 O
   0.9175550000000000    0.6778070000000000    0.0580730000000000 O
   0.4963610000000000    0.8482229999999999    0.2548420000000000 O
   0.3518630000000000    0.5036389999999999    0.2548420000000000 O
   0.1517770000000000    0.6481370000000000    0.2548420000000000 O
   0.8355880000000000    0.8301960000000000    0.7509870000000000 O
   0.9946080000000000    0.1644120000000000    0.7509870000000000 O
   0.1698040000000000    0.0053920000000000    0.7509870000000000 O
   0.7969930000000000    0.8627860000000001    0.2503490000000000 O
   0.0657940000000000    0.2030070000000000    0.2503490000000000 O
   0.1372140000000000    0.9342060000000000    0.2503490000000000 O
   0.5402940000000001    0.8086910000000000    0.7410200000000000 O
   0.2683970000000000    0.4597060000000000    0.7410200000000000 O
   0.1913090000000000    0.7316030000000000    0.7410200000000000 O
   0.6666670000000000    0.3333330000000000    0.2492470000000000 O
   0.6666670000000000    0.3333330000000000    0.7426880000000000 O
