pymatgen with grid density = 1153 / number of atoms
0
Gamma
2 2 3
