pymatgen with grid density = 1184 / number of atoms
0
Gamma
3 3 2
