Li6 Sn6 P6 O24
1.0
   3.9788160000000001   -6.8915110000000004    0.0000000000000000
   3.9788160000000001    6.8915110000000004    0.0000000000000000
   0.0000000000000000    0.0000000000000000   10.2730840000000008
Li Sn P O
6 6 6 24
direct
   0.2113120000000000    0.9786370000000000    0.2517630000000000 Li
   0.0213630000000000    0.2326750000000000    0.2517630000000000 Li
   0.2326750000000000    0.0213630000000000    0.7517630000000000 Li
   0.7673250000000000    0.7886879999999999    0.2517630000000000 Li
   0.7886879999999999    0.7673250000000000    0.7517630000000000 Li
   0.9786370000000000    0.2113120000000000    0.7517630000000000 Li
   0.0056520000000000    0.5746170000000000    0.4733260000000000 Sn
   0.5689650000000001    0.9943480000000000    0.4733260000000000 Sn
   0.4253830000000000    0.4310350000000000    0.4733260000000000 Sn
   0.4310350000000000    0.4253830000000000    0.9733260000000000 Sn
   0.5746170000000000    0.0056520000000000    0.9733260000000000 Sn
   0.9943480000000000    0.5689650000000001    0.9733260000000000 Sn
   0.0000000000000000    0.0000000000000000    0.4997520000000000 P
   0.0000000000000000    0.0000000000000000    0.9997520000000000 P
   0.3333330000000000    0.6666670000000000    0.1951050000000000 P
   0.3333330000000000    0.6666670000000000    0.7543420000000000 P
   0.6666670000000000    0.3333330000000000    0.6951050000000000 P
   0.6666670000000000    0.3333330000000000    0.2543420000000000 P
   0.0979480000000000    0.8871850000000000    0.4432050000000000 O
   0.2222060000000000    0.7697420000000000    0.1445840000000000 O
   0.2295640000000000    0.7759200000000001    0.8070980000000000 O
   0.2240800000000000    0.4536440000000000    0.8070980000000000 O
   0.3333330000000000    0.6666670000000000    0.3459300000000000 O
   0.0000000000000000    0.0000000000000000    0.1503580000000000 O
   0.3333330000000000    0.6666670000000000    0.6040300000000000 O
   0.1128150000000000    0.2107630000000000    0.4432050000000000 O
   0.2302580000000000    0.4524640000000000    0.1445840000000000 O
   0.5475360000000000    0.7777940000000000    0.1445840000000000 O
   0.2107630000000000    0.1128150000000000    0.9432050000000000 O
   0.5463560000000000    0.7704360000000000    0.8070980000000000 O
   0.4524640000000000    0.2302580000000000    0.6445840000000000 O
   0.7892370000000000    0.9020520000000000    0.4432050000000000 O
   0.4536440000000000    0.2240800000000000    0.3070980000000000 O
   0.7704360000000000    0.5463560000000000    0.3070980000000000 O
   0.6666670000000000    0.3333330000000000    0.8459300000000000 O
   0.6666670000000000    0.3333330000000000    0.1040300000000000 O
   0.9020520000000000    0.7892370000000000    0.9432050000000000 O
   0.7777940000000000    0.5475360000000000    0.6445840000000000 O
   0.7697420000000000    0.2222060000000000    0.6445840000000000 O
   0.7759200000000001    0.2295640000000000    0.3070980000000000 O
   0.8871850000000000    0.0979480000000000    0.9432050000000000 O
   0.0000000000000000    0.0000000000000000    0.6503580000000000 O
