Li18 Bi6 P16 O58
1.0
   5.1635970000000002   -8.9436119999999999    0.0000000000000000
   5.1635970000000002    8.9436119999999999    0.0000000000000000
   0.0000000000000000    0.0000000000000000   14.1636389999999999
Li Bi P O
18 6 16 58
direct
   0.8942770000000000    0.6715840000000000    0.9389670000000000 Li
   0.1057230000000000    0.7773080000000000    0.5610330000000000 Li
   0.7773080000000000    0.1057230000000000    0.9389670000000000 Li
   0.8942770000000000    0.2226920000000000    0.4389670000000000 Li
   0.7773080000000000    0.6715840000000000    0.4389670000000000 Li
   0.1057230000000000    0.3284160000000000    0.0610330000000000 Li
   0.3333330000000000    0.6666670000000000    0.3783180000000000 Li
   0.6666670000000000    0.3333330000000000    0.6216820000000000 Li
   0.6715840000000000    0.7773080000000000    0.0610330000000000 Li
   0.6715840000000000    0.8942770000000000    0.5610330000000000 Li
   0.0000000000000000    0.0000000000000000    0.5000000000000000 Li
   0.0000000000000000    0.0000000000000000    0.0000000000000000 Li
   0.3284160000000000    0.1057230000000000    0.4389670000000000 Li
   0.3333330000000000    0.6666670000000000    0.8783180000000000 Li
   0.3284160000000000    0.2226920000000000    0.9389670000000000 Li
   0.6666670000000000    0.3333330000000000    0.1216820000000000 Li
   0.2226920000000000    0.3284160000000000    0.5610330000000000 Li
   0.2226920000000000    0.8942770000000000    0.0610330000000000 Li
   0.0000000000000000    0.4385520000000000    0.2500000000000000 Bi
   0.5614479999999999    0.0000000000000000    0.7500000000000000 Bi
   0.0000000000000000    0.5614479999999999    0.7500000000000000 Bi
   0.4385520000000000    0.0000000000000000    0.2500000000000000 Bi
   0.4385520000000000    0.4385520000000000    0.7500000000000000 Bi
   0.5614479999999999    0.5614479999999999    0.2500000000000000 Bi
   0.2154550000000000    0.3046990000000000    0.3463570000000000 P
   0.6666670000000000    0.3333330000000000    0.3895530000000000 P
   0.3046990000000000    0.2154550000000000    0.1536430000000000 P
   0.3333330000000000    0.6666670000000000    0.6104470000000000 P
   0.6666670000000000    0.3333330000000000    0.8895530000000000 P
   0.7845450000000000    0.6953009999999999    0.6536440000000000 P
   0.6953009999999999    0.9107560000000000    0.3463570000000000 P
   0.0892440000000000    0.3046990000000000    0.8463560000000000 P
   0.2154550000000000    0.9107560000000000    0.8463560000000000 P
   0.6953009999999999    0.7845450000000000    0.8463560000000000 P
   0.3333330000000000    0.6666670000000000    0.1104470000000000 P
   0.9107560000000000    0.6953009999999999    0.1536430000000000 P
   0.7845450000000000    0.0892440000000000    0.1536430000000000 P
   0.3046990000000000    0.0892440000000000    0.6536440000000000 P
   0.9107560000000000    0.2154550000000000    0.6536440000000000 P
   0.0892440000000000    0.7845450000000000    0.3463570000000000 P
   0.7659430000000000    0.7034450000000000    0.1528010000000000 O
   0.8703480000000000    0.5299850000000000    0.1581170000000000 O
   0.7779490000000000    0.7779490000000000    0.7500000000000000 O
   0.0624970000000000    0.2965550000000000    0.3471990000000000 O
   0.6596360000000000    0.1296520000000000    0.1581170000000000 O
   0.2965550000000000    0.0624970000000000    0.1528010000000000 O
   0.7938840000000000    0.4885700000000000    0.8515830000000000 O
   0.7938840000000000    0.3053140000000000    0.3515830000000000 O
   0.3403640000000000    0.4700150000000000    0.3418830000000000 O
   0.2189200000000000    0.9943460000000000    0.5686730000000000 O
   0.0056540000000000    0.7810800000000000    0.0686730000000000 O
   0.5114300000000001    0.2061160000000000    0.3515830000000000 O
   0.8703480000000000    0.3403640000000000    0.6581170000000000 O
   0.2340570000000000    0.9375030000000000    0.3471990000000000 O
   0.5114300000000001    0.3053140000000000    0.8515830000000000 O
   0.6596360000000000    0.5299850000000000    0.6581170000000000 O
   0.7810800000000000    0.7754270000000000    0.9313270000000000 O
   0.4885700000000000    0.7938840000000000    0.6484170000000000 O
   0.1296520000000000    0.4700150000000000    0.8418830000000000 O
   0.9375030000000000    0.2340570000000000    0.1528010000000000 O
   0.7779490000000000    0.0000000000000000    0.2500000000000000 O
   0.4700150000000000    0.1296520000000000    0.6581170000000000 O
   0.9375030000000000    0.7034450000000000    0.6528010000000000 O
   0.7034450000000000    0.7659430000000000    0.3471990000000000 O
   0.0000000000000000    0.7779490000000000    0.2500000000000000 O
   0.2061160000000000    0.5114300000000001    0.1484170000000000 O
   0.5299850000000000    0.6596360000000000    0.8418830000000000 O
   0.4700150000000000    0.3403640000000000    0.1581170000000000 O
   0.6946860000000000    0.2061160000000000    0.8515830000000000 O
   0.2220510000000000    0.2220510000000000    0.2500000000000000 O
   0.7034450000000000    0.9375030000000000    0.8471990000000000 O
   0.3333330000000000    0.6666670000000000    0.5042340000000000 O
   0.2189200000000000    0.2245730000000000    0.0686730000000000 O
   0.0056540000000000    0.2245730000000000    0.5686730000000000 O
   0.2965550000000000    0.2340570000000000    0.6528010000000000 O
   0.5299850000000000    0.8703480000000000    0.3418830000000000 O
   0.2340570000000000    0.2965550000000000    0.8471990000000000 O
   0.6666670000000000    0.3333330000000000    0.4957660000000000 O
   0.9943460000000000    0.2189200000000000    0.9313270000000000 O
   0.3053140000000000    0.7938840000000000    0.1484170000000000 O
   0.2061160000000000    0.6946860000000000    0.6484170000000000 O
   0.7754270000000000    0.9943460000000000    0.0686730000000000 O
   0.6666670000000000    0.3333330000000000    0.9957660000000000 O
   0.0000000000000000    0.2220510000000000    0.7500000000000000 O
   0.2220510000000000    0.0000000000000000    0.7500000000000000 O
   0.2245730000000000    0.0056540000000000    0.9313270000000000 O
   0.3403640000000000    0.8703480000000000    0.8418830000000000 O
   0.2245730000000000    0.2189200000000000    0.4313270000000000 O
   0.3333330000000000    0.6666670000000000    0.0042340000000000 O
   0.0624970000000000    0.7659430000000000    0.8471990000000000 O
   0.3053140000000000    0.5114300000000001    0.6484170000000000 O
   0.1296520000000000    0.6596360000000000    0.3418830000000000 O
   0.7810800000000000    0.0056540000000000    0.4313270000000000 O
   0.7659430000000000    0.0624970000000000    0.6528010000000000 O
   0.7754270000000000    0.7810800000000000    0.5686730000000000 O
   0.6946860000000000    0.4885700000000000    0.3515830000000000 O
   0.9943460000000000    0.7754270000000000    0.4313270000000000 O
   0.4885700000000000    0.6946860000000000    0.1484170000000000 O
