Li2 Ga2 Si4 O12
1.0
   4.3550740000000001    4.8688050000000000    0.0000000000000000
  -4.3550740000000001    4.8688050000000000    0.0000000000000000
   0.0000000000000000    1.8980520000000001    4.9913410000000002
Li Ga Si O
2 2 4 12
direct
   0.7415210000000000    0.2584790000000000    0.7500000000000000 Li
   0.2584790000000000    0.7415210000000000    0.2500000000000000 Li
   0.1014440000000000    0.8985560000000000    0.7500000000000000 Ga
   0.8985560000000000    0.1014440000000000    0.2500000000000000 Ga
   0.6128730000000000    0.7941000000000000    0.7623720000000000 Si
   0.3871270000000000    0.2059000000000000    0.2376280000000000 Si
   0.7941000000000000    0.6128730000000000    0.2623720000000000 Si
   0.2059000000000000    0.3871270000000000    0.7376280000000000 Si
   0.3558210000000000    0.3548790000000000    0.9485940000000000 O
   0.3548790000000000    0.3558210000000000    0.4485940000000000 O
   0.6441789999999999    0.6451210000000001    0.0514060000000000 O
   0.6451210000000001    0.6441789999999999    0.5514060000000000 O
   0.9704240000000000    0.8017020000000000    0.1440320000000000 O
   0.6272620000000000    0.1077550000000000    0.1714890000000000 O
   0.0295760000000000    0.1982980000000000    0.8559680000000000 O
   0.8017020000000000    0.9704240000000000    0.6440320000000000 O
   0.1982980000000000    0.0295760000000000    0.3559680000000000 O
   0.3727380000000000    0.8922450000000000    0.8285110000000000 O
   0.1077550000000000    0.6272620000000000    0.6714890000000000 O
   0.8922450000000000    0.3727380000000000    0.3285110000000000 O
