ALGO = Fast
EDIFF = 0.0044
ENCUT = 520
IBRION = 2
ISIF = 3
ISMEAR = -5
ISPIN = 2
LASPH = True
LMAXMIX = 4
LORBIT = 11
LREAL = Auto
LWAVE = False
MAGMOM = 4*0.001 4*0.265 1*0.0 1*0.005 1*0.0 1*0.011 2*0.008 1*0.011 1*0.0 1*0.005 2*0.0 1*0.005 1*0.0 1*0.011 2*0.008 1*0.011 1*0.0 1*0.005 1*0.0 1*0.002 1*0.003 1*0.002 1*0.106 1*0.109 1*0.066 1*0.073 1*0.058 1*0.072 1*0.003 1*0.002 1*0.001 1*0.017 1*0.028 2*0.047 1*0.028 1*0.017 1*0.001 1*0.002 1*0.003 1*0.072 1*0.058 1*0.073 1*0.066 1*0.109 1*0.106 1*0.002 1*0.003 2*0.002 1*0.003 1*0.002 1*0.106 1*0.109 1*0.066 1*0.073 1*0.058 1*0.072 1*0.003 1*0.002 1*0.001 1*0.017 1*0.028 2*0.047 1*0.028 1*0.017 1*0.001 1*0.002 1*0.003 1*0.072 1*0.058 1*0.073 1*0.066 1*0.109 1*0.106 1*0.002 1*0.003 1*0.002
NELM = 100
NSW = 99
PREC = Accurate
SIGMA = 0.05
