pymatgen with grid density = 1029 / number of atoms
0
Gamma
1 2 2
