ALGO = Fast
EDIFF = 0.0024000000000000002
ENCUT = 520
IBRION = 2
ISIF = 3
ISMEAR = -5
ISPIN = 2
LASPH = True
LMAXMIX = 4
LORBIT = 11
LREAL = Auto
LWAVE = False
MAGMOM = 2*0.002 1*0.391 1*0.387 1*0.391 1*0.387 1*0.007 1*0.006 1*0.007 1*0.01 2*0.011 3*0.01 1*0.006 1*0.001 2*0.081 1*0.001 1*0.065 1*0.003 1*0.02 1*0.018 1*0.041 1*0.089 1*0.098 1*0.047 1*0.036 1*0.093 1*0.054 1*0.047 1*0.04 1*0.02 1*0.036 1*0.089 1*0.063 1*0.055 1*0.018 1*0.093 1*0.098 1*0.04 1*0.055 1*0.063 1*0.041 1*0.054 1*0.003 1*0.065
NELM = 100
NSW = 99
PREC = Accurate
SIGMA = 0.05
