pymatgen with grid density = 1172 / number of atoms
0
Gamma
4 3 4
