Li4 Sb2 As2 C2 O14
1.0
   6.9770450000000004    0.0000000000000000    0.0000000000000000
   0.0000000000000000    5.2375150000000001    0.0000000000000000
   0.0000000000000000    0.5912370000000000    9.3514769999999992
Li Sb As C O
4 2 2 2 14
direct
   0.4393280000000000    0.2201910000000000    0.7814810000000000 Li
   0.0606720000000000    0.2201910000000000    0.7814810000000000 Li
   0.5606719999999999    0.7798090000000000    0.2185190000000000 Li
   0.9393280000000001    0.7798090000000000    0.2185190000000000 Li
   0.7500000000000000    0.7954120000000000    0.6514010000000000 Sb
   0.2500000000000000    0.2045880000000000    0.3485990000000000 Sb
   0.2500000000000000    0.7371490000000001    0.6124380000000000 As
   0.7500000000000000    0.2628510000000000    0.3875620000000000 As
   0.7500000000000000    0.7397850000000000    0.9333250000000000 C
   0.2500000000000000    0.2602150000000000    0.0666750000000000 C
   0.2500000000000000    0.2560340000000000    0.9327730000000000 O
   0.7500000000000000    0.9603660000000001    0.8505560000000000 O
   0.7500000000000000    0.5339350000000000    0.8623400000000000 O
   0.0562810000000000    0.8843450000000000    0.6882610000000000 O
   0.4437190000000000    0.8843450000000000    0.6882610000000000 O
   0.7500000000000000    0.1947060000000000    0.5726540000000000 O
   0.2500000000000000    0.4158350000000000    0.6467820000000000 O
   0.7500000000000000    0.5841650000000000    0.3532180000000000 O
   0.2500000000000000    0.8052940000000000    0.4273460000000000 O
   0.5562810000000000    0.1156550000000000    0.3117390000000000 O
   0.9437190000000000    0.1156550000000000    0.3117390000000000 O
   0.2500000000000000    0.4660650000000000    0.1376600000000000 O
   0.2500000000000000    0.0396340000000000    0.1494440000000000 O
   0.7500000000000000    0.7439660000000000    0.0672270000000000 O
