pymatgen with grid density = 967 / number of atoms
0
Monkhorst
2 2 2
