Li2 U8 As6 O40
1.0
  -3.6522600000000001    3.6522600000000001   17.2221539999999997
   3.6522600000000001   -3.6522600000000001   17.2221539999999997
   3.6522600000000001    3.6522600000000001  -17.2221539999999997
Li U As O
2 8 6 40
direct
   0.5475640000000001    0.0475640000000000    0.5000000000000000 Li
   0.7975640000000001    0.7975640000000001    0.0000000000000000 Li
   0.5295040000000000    0.5295040000000000    0.0000000000000000 U
   0.2795040000000000    0.7795040000000000    0.5000000000000000 U
   0.9706050000000001    0.4706050000000000    0.5000000000000000 U
   0.2206050000000000    0.2206050000000000    0.0000000000000000 U
   0.6538370000000000    0.6538370000000000    0.0000000000000000 U
   0.4038370000000000    0.9038370000000000    0.5000000000000000 U
   0.8460750000000000    0.3460750000000000    0.5000000000000000 U
   0.0960750000000000    0.0960750000000000    0.0000000000000000 U
   0.4326010000000000    0.4326010000000000    0.0000000000000000 As
   0.1826010000000000    0.6826010000000000    0.5000000000000000 As
   0.0677520000000000    0.5677520000000000    0.5000000000000000 As
   0.3177520000000000    0.3177520000000000    0.0000000000000000 As
   0.6267580000000000    0.1267580000000000    0.5000000000000000 As
   0.8767580000000000    0.8767580000000000    0.0000000000000000 As
   0.2906070000000000    0.4662990000000000    0.8243080000000000 O
   0.6419899999999999    0.4662990000000000    0.1756920000000000 O
   0.2162990000000000    0.5406069999999999    0.3243080000000000 O
   0.2162990000000000    0.8919899999999999    0.6756920000000000 O
   0.2146170000000000    0.5350080000000000    0.6796080000000000 O
   0.8554000000000000    0.5350080000000000    0.3203920000000000 O
   0.2850080000000000    0.4646170000000000    0.1796080000000000 O
   0.2850080000000000    0.1054000000000000    0.8203920000000000 O
   0.4048730000000000    0.5975530000000000    0.1926800000000000 O
   0.3475530000000000    0.6548730000000000    0.6926800000000000 O
   0.9621930000000000    0.6548730000000000    0.3073200000000000 O
   0.4048730000000000    0.2121930000000000    0.8073200000000000 O
   0.0950100000000000    0.4010320000000000    0.3060220000000000 O
   0.1510320000000000    0.3450100000000000    0.8060220000000000 O
   0.5389890000000001    0.3450100000000000    0.1939780000000000 O
   0.0950100000000000    0.7889890000000001    0.6939780000000000 O
   0.5971730000000000    0.5971730000000000    0.0000000000000000 O
   0.3471730000000000    0.8471730000000000    0.5000000000000000 O
   0.9013450000000000    0.4013450000000000    0.5000000000000000 O
   0.1513450000000000    0.1513450000000000    0.0000000000000000 O
   0.6542289999999999    0.9600530000000000    0.3058230000000000 O
   0.7100530000000000    0.9042289999999999    0.8058230000000000 O
   0.0984060000000000    0.9042289999999999    0.1941770000000000 O
   0.6542289999999999    0.3484060000000000    0.6941770000000000 O
   0.8446850000000000    0.0285080000000000    0.1838230000000000 O
   0.7785080000000000    0.0946850000000000    0.6838230000000000 O
   0.4108610000000000    0.0946850000000000    0.3161770000000000 O
   0.8446850000000000    0.6608610000000000    0.8161770000000000 O
   0.7063220000000000    0.7063220000000000    0.0000000000000000 O
   0.4563220000000000    0.9563220000000000    0.5000000000000000 O
   0.7937590000000000    0.2937590000000000    0.5000000000000000 O
   0.0437590000000000    0.0437590000000000    0.0000000000000000 O
   0.5294670000000000    0.2808290000000000    0.7513630000000000 O
   0.0308290000000000    0.7794670000000000    0.2513630000000000 O
   0.5281040000000000    0.7794670000000000    0.7486370000000000 O
   0.5294670000000000    0.7781040000000000    0.2486370000000000 O
   0.9707810000000000    0.7153430000000000    0.7445619999999999 O
   0.4653430000000000    0.2207810000000000    0.2445620000000000 O
   0.9762189999999999    0.2207810000000000    0.7554380000000001 O
   0.9707810000000000    0.2262190000000000    0.2554380000000000 O
