pymatgen with grid density = 1408 / number of atoms
0
Gamma
4 3 2
