K4 Li12 Si4 O16
1.0
   5.6520310000000000   -0.0137210000000000    1.3522609999999999
   1.1270800000000001    7.3049900000000001    0.8087720000000000
   0.0028020000000000   -0.0459470000000000    9.8279549999999993
K Li Si O
4 12 4 16
direct
   0.0050890000000000    0.3830930000000000    0.8837910000000000 K
   0.9949110000000000    0.6169070000000000    0.1162090000000000 K
   0.0418340000000000    0.1405490000000000    0.6289810000000000 K
   0.9581660000000000    0.8594510000000000    0.3710190000000000 K
   0.7927920000000001    0.0614070000000000    0.1033120000000000 Li
   0.2072080000000000    0.9385930000000000    0.8966880000000000 Li
   0.4825150000000000    0.3276610000000000    0.6112220000000000 Li
   0.5174850000000000    0.6723390000000000    0.3887780000000000 Li
   0.2002400000000000    0.1698830000000000    0.1451620000000000 Li
   0.7997600000000000    0.8301170000000000    0.8548380000000000 Li
   0.5349770000000000    0.4257460000000000    0.1287290000000000 Li
   0.4650230000000000    0.5742540000000000    0.8712710000000000 Li
   0.4321730000000000    0.0502020000000000    0.3735500000000000 Li
   0.5678270000000000    0.9497980000000000    0.6264500000000000 Li
   0.1870880000000000    0.4506440000000000    0.3954750000000000 Li
   0.8129120000000000    0.5493560000000000    0.6045250000000000 Li
   0.8387220000000000    0.2919960000000000    0.3513770000000000 Si
   0.1612780000000000    0.7080040000000000    0.6486229999999999 Si
   0.4400270000000000    0.7866760000000000    0.1368790000000000 Si
   0.5599730000000001    0.2133240000000000    0.8631210000000000 Si
   0.6495520000000000    0.1682740000000000    0.4575610000000000 O
   0.3504480000000000    0.8317260000000000    0.5424390000000000 O
   0.2055020000000000    0.9225790000000000    0.0962200000000000 O
   0.7944980000000000    0.0774210000000000    0.9037800000000000 O
   0.3458060000000000    0.6167120000000000    0.2514120000000000 O
   0.6541940000000001    0.3832880000000000    0.7485880000000000 O
   0.1257890000000000    0.2074330000000000    0.3503490000000000 O
   0.8742110000000000    0.7925670000000000    0.6496510000000000 O
   0.1964410000000000    0.4994860000000000    0.5917960000000000 O
   0.8035590000000000    0.5005140000000000    0.4082040000000000 O
   0.3920040000000000    0.3177010000000000    0.0023350000000000 O
   0.6079960000000000    0.6822990000000000    0.9976650000000000 O
   0.8172090000000000    0.2883690000000000    0.1859710000000000 O
   0.1827910000000000    0.7116310000000000    0.8140290000000000 O
   0.4063440000000000    0.1084480000000000    0.7821890000000000 O
   0.5936560000000000    0.8915520000000000    0.2178110000000000 O
