pymatgen with grid density = 809 / number of atoms
0
Gamma
5 4 3
