pymatgen with grid density = 1301 / number of atoms
0
Gamma
6 6 3
