Li1 Dy2 O2 F2
1.0
  -1.9721970000000000   -3.4159449999999998    0.0000000000000000
   1.9721970000000000   -3.4159449999999998    0.0000000000000000
   0.0000000000000000   -2.2772969999999999    6.3411429999999998
Li Dy O F
1 2 2 2
direct
   0.5000000000000000    0.5000000000000000    0.5000000000000000 Li
   0.7316930000000000    0.7316930000000000    0.8049230000000001 Dy
   0.2683070000000000    0.2683070000000000    0.1950770000000000 Dy
   0.6072200000000000    0.6072200000000000    0.1783400000000000 O
   0.3927800000000000    0.3927800000000000    0.8216599999999999 O
   0.8617460000000000    0.8617460000000000    0.4147630000000000 F
   0.1382540000000000    0.1382540000000000    0.5852370000000000 F
