ALGO = Fast
EDIFF = 0.005
ENCUT = 520
IBRION = 2
ISIF = 3
ISMEAR = -5
ISPIN = 2
LASPH = True
LORBIT = 11
LREAL = Auto
LWAVE = False
MAGMOM = 2*-0.007 2*-0.001 1*-0.0 1*-0.001 2*-0.0 1*-0.001 1*-0.0 1*-0.001 2*0.002 1*-0.001 2*0.002 18*-0.0 6*-0.001 2*-0.019 1*0.004 2*0.003 1*0.005 4*0.003 1*0.004 2*0.003 1*0.004 1*0.007 1*0.012 1*0.007 1*0.006 1*0.012 1*0.008 1*0.003 1*0.002 2*0.003 1*0.002 5*0.003 1*0.004 1*0.003 1*0.006 1*0.004 1*0.007 1*0.006 1*0.004 1*0.007 4*0.026 1*0.027 1*0.025 1*0.011 1*0.012 1*0.009 1*0.012 1*0.011 1*0.01 1*0.159 1*0.152 1*0.205 1*0.159 1*0.153 1*0.206 1*0.302 1*0.301 2*1.438
NELM = 100
NSW = 99
PREC = Accurate
SIGMA = 0.05
