Li4 P4 H8 O12
1.0
   5.1350879999999997    0.0000000000000000    0.0000000000000000
   0.0000000000000000    5.2601370000000003    0.0000000000000000
   0.0000000000000000    0.0000000000000000   11.1758360000000003
Li P H O
4 4 8 12
direct
   0.9810850000000000    0.2618650000000000    0.4207230000000000 Li
   0.4810850000000000    0.7618650000000000    0.0792770000000000 Li
   0.5189150000000000    0.2618650000000000    0.9207230000000000 Li
   0.0189150000000000    0.7618650000000000    0.5792770000000000 Li
   0.6848919999999999    0.7449440000000001    0.3446050000000000 P
   0.3151080000000000    0.2449440000000000    0.6553949999999999 P
   0.8151080000000001    0.7449440000000001    0.8446050000000001 P
   0.1848920000000000    0.2449440000000000    0.1553950000000000 P
   0.9932040000000000    0.6186720000000000    0.1606000000000000 H
   0.0067960000000000    0.1186720000000000    0.8394000000000000 H
   0.5067960000000000    0.6186720000000000    0.6606000000000000 H
   0.4932040000000000    0.1186720000000000    0.3394000000000000 H
   0.5654400000000001    0.1500630000000000    0.6303050000000000 H
   0.0654400000000000    0.6500629999999999    0.8696950000000000 H
   0.9345599999999999    0.1500630000000000    0.1303050000000000 H
   0.4345600000000000    0.6500629999999999    0.3696950000000000 H
   0.8840760000000000    0.6274050000000000    0.4282070000000000 O
   0.6159240000000000    0.6274050000000000    0.9282070000000000 O
   0.1159240000000000    0.1274050000000000    0.5717930000000000 O
   0.3840760000000000    0.1274050000000000    0.0717930000000000 O
   0.1623760000000000    0.5417890000000000    0.1237990000000000 O
   0.7342070000000001    0.7058630000000000    0.2109300000000000 O
   0.3376240000000000    0.5417890000000000    0.6237990000000000 O
   0.8376240000000000    0.0417890000000000    0.8762010000000000 O
   0.7657929999999999    0.7058630000000000    0.7109300000000000 O
   0.2342070000000000    0.2058630000000000    0.2890700000000000 O
   0.6623760000000000    0.0417890000000000    0.3762010000000000 O
   0.2657930000000000    0.2058630000000000    0.7890700000000000 O
