ALGO = Fast
EDIFF = 0.00045000000000000004
ENCUT = 520
IBRION = 2
ISIF = 3
ISMEAR = -5
ISPIN = 2
LASPH = True
LMAXMIX = 6
LORBIT = 11
LREAL = Auto
LWAVE = False
MAGMOM = 1*0.029 1*0.052 1*2.5 1*2.617 1*-0.042 1*-0.029 1*-0.005 1*-0.068 1*-0.065
NELM = 100
NSW = 99
PREC = Accurate
SIGMA = 0.05
