pymatgen with grid density = 1422 / number of atoms
0
Gamma
1 5 3
