ALGO = Fast
EDIFF = 0.0019500000000000001
ENCUT = 520
IBRION = 2
ISIF = 3
ISMEAR = -5
ISPIN = 2
LASPH = True
LMAXMIX = 4
LORBIT = 11
LREAL = Auto
LWAVE = False
MAGMOM = 1*0.007 1*0.003 1*0.008 1*0.022 1*0.068 1*0.108 1*-0.019 1*-0.031 1*-0.004 1*-0.021 1*-0.035 1*0.009 1*-0.097 1*-0.049 1*-0.004 1*-0.012 1*-0.007 1*-0.01 1*0.047 1*-0.014 1*0.009 1*0.302 1*-0.069 1*0.194 1*-0.009 1*0.845 1*-0.01 1*0.708 1*-0.042 1*0.018 2*-0.007 1*0.442 1*-0.085 1*-0.044 1*0.41 1*-0.008 1*0.002 1*0.851
NELM = 100
NSW = 99
PREC = Accurate
SIGMA = 0.05
