Li12 Gd12 Te8 O48
1.0
  -6.2595703699999996   -6.2595703699999996    6.2595703699999996
  -6.2595703699999996    6.2595703699999996   -6.2595703699999996
   6.2595703699999996   -6.2595703699999996   -6.2595703699999996
Li Gd Te O
12 12 8 48
direct
   0.6250000000000000    0.3750000000000000    0.7500000000000000 Li
   0.3750000000000000    0.6250000000000000    0.2500000000000000 Li
   0.8750000000000000    0.1250000000000000    0.2500000000000000 Li
   0.3750000000000000    0.7500000000000000    0.6250000000000000 Li
   0.6250000000000000    0.2500000000000000    0.3750000000000000 Li
   0.1250000000000000    0.8750000000000000    0.7500000000000000 Li
   0.1250000000000000    0.2500000000000000    0.8750000000000000 Li
   0.8750000000000000    0.7500000000000000    0.1250000000000000 Li
   0.7500000000000000    0.6250000000000000    0.3750000000000000 Li
   0.2500000000000000    0.3750000000000000    0.6250000000000000 Li
   0.2500000000000000    0.8750000000000000    0.1250000000000000 Li
   0.7500000000000000    0.1250000000000000    0.8750000000000000 Li
   0.8750000000000000    0.6250000000000000    0.7500000000000000 Gd
   0.1250000000000000    0.3750000000000000    0.2500000000000000 Gd
   0.6250000000000000    0.8750000000000000    0.2500000000000000 Gd
   0.6250000000000000    0.7500000000000000    0.8750000000000000 Gd
   0.8750000000000000    0.2500000000000000    0.6250000000000000 Gd
   0.3750000000000000    0.1250000000000000    0.7500000000000000 Gd
   0.3750000000000000    0.2500000000000000    0.1250000000000000 Gd
   0.1250000000000000    0.7500000000000000    0.3750000000000000 Gd
   0.7500000000000000    0.8750000000000000    0.6250000000000000 Gd
   0.2500000000000000    0.1250000000000000    0.3750000000000000 Gd
   0.2500000000000000    0.6250000000000000    0.8750000000000000 Gd
   0.7500000000000000    0.3750000000000000    0.1250000000000000 Gd
   0.0000000000000000   -0.0000000000000000    0.0000000000000000 Te
   0.5000000000000000    0.0000000000000000    0.5000000000000000 Te
   0.5000000000000000    0.5000000000000000    0.0000000000000000 Te
   0.0000000000000000    0.0000000000000000    0.5000000000000000 Te
   0.0000000000000000    0.5000000000000000    0.5000000000000000 Te
   0.5000000000000000    0.5000000000000000    0.5000000000000000 Te
   0.5000000000000000    0.0000000000000000    0.0000000000000000 Te
   0.0000000000000000    0.5000000000000000    0.0000000000000000 Te
   0.6974501400000001    0.6187632700000000    0.5260130700000000 O
   0.3025498600000000    0.3812367300000000    0.4739869300000000 O
   0.8025498599999999    0.8285629300000000    0.4213131300000000 O
   0.4072498000000000    0.8812367300000000    0.0786868700000000 O
   0.6187632700000000    0.5260130700000000    0.6974501400000001 O
   0.6974501400000001    0.0786868700000000    0.6714370700000000 O
   0.1974501400000000    0.1714370700000000    0.5786868700000000 O
   0.5927502000000000    0.1187632700000000    0.9213131300000000 O
   0.3812367300000000    0.4739869300000000    0.3025498600000000 O
   0.3025498600000000    0.9213131300000000    0.3285629300000000 O
   0.0927502000000000    0.6714370700000000    0.9739869300000000 O
   0.8285629300000000    0.4213131300000000    0.8025498599999999 O
   0.8025498599999999    0.9739869300000000    0.8812367300000000 O
   0.9072498000000000    0.3285629300000000    0.0260130700000000 O
   0.1714370700000000    0.5786868700000000    0.1974501400000000 O
   0.1974501400000000    0.0260130700000000    0.1187632700000000 O
   0.8812367300000000    0.0786868700000000    0.4072498000000000 O
   0.4072498000000000    0.5260130700000000    0.8285629300000000 O
   0.1187632700000000    0.9213131300000000    0.5927502000000000 O
   0.5927502000000000    0.4739869300000000    0.1714370700000000 O
   0.6714370700000000    0.9739869300000000    0.0927502000000000 O
   0.0927502000000000    0.4213131300000000    0.6187632700000000 O
   0.3285629300000000    0.0260130700000000    0.9072498000000000 O
   0.9072498000000000    0.5786868700000000    0.3812367300000000 O
   0.5260130700000000    0.6974501400000001    0.6187632700000000 O
   0.6187632700000000    0.0927502000000000    0.4213131300000000 O
   0.4739869300000000    0.3025498600000000    0.3812367300000000 O
   0.3812367300000000    0.9072498000000000    0.5786868700000000 O
   0.0786868700000000    0.4072498000000000    0.8812367300000000 O
   0.8812367300000000    0.8025498599999999    0.9739869300000000 O
   0.9213131300000000    0.5927502000000000    0.1187632700000000 O
   0.1187632700000000    0.1974501400000000    0.0260130700000000 O
   0.9739869300000000    0.0927502000000000    0.6714370700000000 O
   0.6714370700000000    0.6974501400000001    0.0786868700000000 O
   0.0260130700000000    0.9072498000000000    0.3285629300000000 O
   0.3285629300000000    0.3025498600000000    0.9213131300000000 O
   0.4213131300000000    0.8025498599999999    0.8285629300000000 O
   0.8285629300000000    0.4072498000000000    0.5260130700000000 O
   0.5786868700000000    0.1974501400000000    0.1714370700000000 O
   0.1714370700000000    0.5927502000000000    0.4739869300000000 O
   0.0786868700000000    0.6714370700000000    0.6974501400000001 O
   0.9213131300000000    0.3285629300000000    0.3025498600000000 O
   0.9739869300000000    0.8812367300000000    0.8025498599999999 O
   0.0260130700000000    0.1187632700000000    0.1974501400000000 O
   0.4213131300000000    0.6187632700000000    0.0927502000000000 O
   0.5786868700000000    0.3812367300000000    0.9072498000000000 O
   0.5260130700000000    0.8285629300000000    0.4072498000000000 O
   0.4739869300000000    0.1714370700000000    0.5927502000000000 O
