pymatgen with grid density = 1377 / number of atoms
0
Gamma
2 5 5
