Li8 Ga6 Si6 Br2 O24
1.0
   8.5543904899999994    0.0000000000000000    0.0000000000000000
  -0.0000000000000000    8.5543904899999994   -0.0000000000000000
   0.0000000000000000   -0.0000000000000000    8.5543904899999994
Li Ga Si Br O
8 6 6 2 24
direct
   0.3212910300000000    0.3212910300000000    0.6787089700000000 Li
   0.1787089700000000    0.8212910300000000    0.8212910300000000 Li
   0.3212910300000000    0.6787089700000000    0.3212910300000000 Li
   0.8212910300000000    0.1787089700000000    0.8212910300000000 Li
   0.1787089700000000    0.1787089700000000    0.1787089700000000 Li
   0.6787089700000000    0.6787089700000000    0.6787089700000000 Li
   0.6787089700000000    0.3212910300000000    0.3212910300000000 Li
   0.8212910300000000    0.8212910300000000    0.1787089700000000 Li
  -0.0000000000000000    0.7500000000000000    0.5000000000000000 Ga
   0.2500000000000000    0.5000000000000000   -0.0000000000000000 Ga
   0.5000000000000000   -0.0000000000000000    0.7500000000000000 Ga
   0.5000000000000000   -0.0000000000000000    0.2500000000000000 Ga
  -0.0000000000000000    0.2500000000000000    0.5000000000000000 Ga
   0.7500000000000000    0.5000000000000000   -0.0000000000000000 Ga
  -0.0000000000000000    0.5000000000000000    0.2500000000000000 Si
   0.5000000000000000    0.7500000000000000   -0.0000000000000000 Si
   0.5000000000000000    0.2500000000000000   -0.0000000000000000 Si
  -0.0000000000000000    0.5000000000000000    0.7500000000000000 Si
   0.7500000000000000   -0.0000000000000000    0.5000000000000000 Si
   0.2500000000000000   -0.0000000000000000    0.5000000000000000 Si
  -0.0000000000000000   -0.0000000000000000   -0.0000000000000000 Br
   0.5000000000000000    0.5000000000000000    0.5000000000000000 Br
   0.9025899500000000    0.6270559600000000    0.6464371300000000 O
   0.4025899500000000    0.8535628700000000    0.8729440400000000 O
   0.0974100500000000    0.3729440400000000    0.6464371300000000 O
   0.8535628700000000    0.8729440400000000    0.4025899500000000 O
   0.4025899500000000    0.1464371300000000    0.1270559600000000 O
   0.6464371300000000    0.0974100500000000    0.3729440400000000 O
   0.3729440400000000    0.3535628700000000    0.9025899500000000 O
   0.3535628700000000    0.9025899500000000    0.3729440400000000 O
   0.5974100500000000    0.8535628700000000    0.1270559600000000 O
   0.1464371300000000    0.1270559600000000    0.4025899500000000 O
   0.5974100500000000    0.1464371300000000    0.8729440400000000 O
   0.8729440400000000    0.5974100500000000    0.1464371300000000 O
   0.1464371300000000    0.8729440400000000    0.5974100500000000 O
   0.3729440400000000    0.6464371300000000    0.0974100500000000 O
   0.1270559600000000    0.5974100500000000    0.8535628700000000 O
   0.6270559600000000    0.6464371300000000    0.9025899500000000 O
   0.1270559600000000    0.4025899500000000    0.1464371300000000 O
   0.3535628700000000    0.0974100500000000    0.6270559600000000 O
   0.0974100500000000    0.6270559600000000    0.3535628700000000 O
   0.8729440400000000    0.4025899500000000    0.8535628700000000 O
   0.6270559600000000    0.3535628700000000    0.0974100500000000 O
   0.6464371300000000    0.9025899500000000    0.6270559600000000 O
   0.9025899500000000    0.3729440400000000    0.3535628700000000 O
   0.8535628700000000    0.1270559600000000    0.5974100500000000 O
