Li4 Be4 As4 O20
1.0
   4.9347079999999997    0.0000000000000000    0.0000000000000000
   0.0000000000000000    7.8468730000000004    0.0000000000000000
   0.0000000000000000    0.0000000000000000   10.5056709999999995
Li Be As O
4 4 4 20
direct
   0.1688860000000000    0.8017339999999999    0.6865400000000000 Li
   0.6688860000000000    0.1982660000000000    0.3134600000000000 Li
   0.6688860000000000    0.3017340000000000    0.8134600000000000 Li
   0.1688860000000000    0.6982660000000001    0.1865400000000000 Li
   0.6790820000000000    0.6135850000000000    0.6429650000000000 Be
   0.1790820000000000    0.3864150000000000    0.3570350000000000 Be
   0.1790820000000000    0.1135850000000000    0.8570350000000000 Be
   0.6790820000000000    0.8864150000000000    0.1429650000000000 Be
   0.6798220000000000    0.8952790000000000    0.8530010000000000 As
   0.1798220000000000    0.1047210000000000    0.1469990000000000 As
   0.1798220000000000    0.3952790000000000    0.6469990000000000 As
   0.6798220000000000    0.6047210000000000    0.3530010000000000 As
   0.7409710000000000    0.6931380000000000    0.5003980000000000 O
   0.2409710000000000    0.3068620000000000    0.4996020000000000 O
   0.2409710000000000    0.1931380000000000    0.9996020000000000 O
   0.7409710000000000    0.8068620000000000    0.0003980000000000 O
   0.7949470000000000    0.7600300000000000    0.7386660000000000 O
   0.2949470000000000    0.2399700000000000    0.2613340000000000 O
   0.2949470000000000    0.2600300000000000    0.7613340000000000 O
   0.7949470000000000    0.7399700000000000    0.2386660000000000 O
   0.3553400000000000    0.5835990000000000    0.6638490000000000 O
   0.8553400000000000    0.4164010000000000    0.3361510000000000 O
   0.8553400000000000    0.0835990000000000    0.8361510000000000 O
   0.3553400000000000    0.9164010000000000    0.1638490000000000 O
   0.8399510000000000    0.4320980000000000    0.6705280000000000 O
   0.3399510000000000    0.5679020000000000    0.3294720000000000 O
   0.3399510000000000    0.9320980000000000    0.8294720000000000 O
   0.8399510000000000    0.0679020000000000    0.1705280000000000 O
   0.1010020000000000    0.6283560000000000    0.0021270000000000 O
   0.6010020000000000    0.3716440000000000    0.9978730000000000 O
   0.6010020000000000    0.1283560000000000    0.4978730000000000 O
   0.1010020000000000    0.8716440000000000    0.5021270000000000 O
